p cnf 1153 2955
31 -1089 0
-31 1089 0
30 -1088 0
-30 1088 0
29 -1087 0
-29 1087 0
28 -1086 0
-28 1086 0
27 -1085 0
-27 1085 0
26 -1084 0
-26 1084 0
25 -1083 0
-25 1083 0
24 -1082 0
-24 1082 0
23 -1081 0
-23 1081 0
22 -1080 0
-22 1080 0
21 -1079 0
-21 1079 0
20 -1078 0
-20 1078 0
19 -1077 0
-19 1077 0
18 -1076 0
-18 1076 0
17 -1075 0
-17 1075 0
16 -1074 0
-16 1074 0
15 -1073 0
-15 1073 0
14 -1072 0
-14 1072 0
13 -1071 0
-13 1071 0
12 -1070 0
-12 1070 0
11 -1069 0
-11 1069 0
10 -1068 0
-10 1068 0
9 -1067 0
-9 1067 0
8 -1066 0
-8 1066 0
7 -1065 0
-7 1065 0
6 -1064 0
-6 1064 0
5 -1063 0
-5 1063 0
4 -1062 0
-4 1062 0
2 -1060 0
-2 1060 0
3 -1061 0
-3 1061 0
-32 2 0
-32 3 0
32 -2 -3 0
-33 4 0
-33 32 0
33 -4 -32 0
-34 -5 0
-34 33 0
34 5 -33 0
-35 -5 0
-35 -34 0
35 5 34 0
-36 -6 0
-36 -35 0
36 6 35 0
-37 -6 0
-37 -36 0
37 6 36 0
-38 -7 0
-38 -37 0
38 7 37 0
-39 -7 0
-39 -38 0
39 7 38 0
-40 -8 0
-40 -39 0
40 8 39 0
-41 -8 0
-41 -40 0
41 8 40 0
-42 -9 0
-42 -41 0
42 9 41 0
-43 -9 0
-43 -42 0
43 9 42 0
-44 -10 0
-44 -43 0
44 10 43 0
-45 -10 0
-45 -44 0
45 10 44 0
-46 11 0
-46 -45 0
46 -11 45 0
-47 -12 0
-47 46 0
47 12 -46 0
-48 -12 0
-48 -47 0
48 12 47 0
-49 -13 0
-49 -48 0
49 13 48 0
-50 -13 0
-50 -49 0
50 13 49 0
-51 14 0
-51 -50 0
51 -14 50 0
-52 -15 0
-52 51 0
52 15 -51 0
-53 -15 0
-53 -52 0
53 15 52 0
-54 -16 0
-54 -53 0
54 16 53 0
-55 -16 0
-55 -54 0
55 16 54 0
-56 -17 0
-56 -55 0
56 17 55 0
-57 -17 0
-57 -56 0
57 17 56 0
-58 -18 0
-58 -57 0
58 18 57 0
-59 -18 0
-59 -58 0
59 18 58 0
-60 -19 0
-60 -59 0
60 19 59 0
-61 -19 0
-61 -60 0
61 19 60 0
-62 -20 0
-62 -61 0
62 20 61 0
-63 -20 0
-63 -62 0
63 20 62 0
-64 -21 0
-64 -63 0
64 21 63 0
-65 -21 0
-65 -64 0
65 21 64 0
-66 -22 0
-66 -65 0
66 22 65 0
-67 -22 0
-67 -66 0
67 22 66 0
-68 -23 0
-68 -67 0
68 23 67 0
-69 -23 0
-69 -68 0
69 23 68 0
-70 -24 0
-70 -69 0
70 24 69 0
-71 -24 0
-71 -70 0
71 24 70 0
-72 -25 0
-72 -71 0
72 25 71 0
-73 -25 0
-73 -72 0
73 25 72 0
-74 -26 0
-74 -73 0
74 26 73 0
-75 -26 0
-75 -74 0
75 26 74 0
-76 -27 0
-76 -75 0
76 27 75 0
-77 -27 0
-77 -76 0
77 27 76 0
-78 -28 0
-78 -77 0
78 28 77 0
-79 -28 0
-79 -78 0
79 28 78 0
-80 -29 0
-80 -79 0
80 29 79 0
-81 -29 0
-81 -80 0
81 29 80 0
-82 -30 0
-82 -81 0
82 30 81 0
-83 -30 0
-83 -82 0
83 30 82 0
-84 -31 0
-84 -83 0
84 31 83 0
-85 -31 0
-85 -84 0
85 31 84 0
-86 -2 0
-86 -3 0
86 2 3 0
-87 -4 0
-87 86 0
87 4 -86 0
-88 -5 0
-88 87 0
88 5 -87 0
-89 -6 0
-89 88 0
89 6 -88 0
-90 -7 0
-90 89 0
90 7 -89 0
-91 -8 0
-91 90 0
91 8 -90 0
-92 -9 0
-92 91 0
92 9 -91 0
-93 -10 0
-93 92 0
93 10 -92 0
-94 11 0
-94 93 0
94 -11 -93 0
-95 11 0
-95 -94 0
95 -11 94 0
-96 -12 0
-96 -95 0
96 12 95 0
-97 13 0
-97 96 0
97 -13 -96 0
-98 13 0
-98 -97 0
98 -13 97 0
-99 -14 0
-99 -98 0
99 14 98 0
-100 -15 0
-100 99 0
100 15 -99 0
-101 16 0
-101 100 0
101 -16 -100 0
-102 16 0
-102 -101 0
102 -16 101 0
-103 17 0
-103 -102 0
103 -17 102 0
-104 17 0
-104 -103 0
104 -17 103 0
-105 -18 0
-105 -104 0
105 18 104 0
-106 19 0
-106 105 0
106 -19 -105 0
-107 19 0
-107 -106 0
107 -19 106 0
-108 -20 0
-108 -107 0
108 20 107 0
-109 21 0
-109 108 0
109 -21 -108 0
-110 21 0
-110 -109 0
110 -21 109 0
-111 22 0
-111 -110 0
111 -22 110 0
-112 22 0
-112 -111 0
112 -22 111 0
-113 -23 0
-113 -112 0
113 23 112 0
-114 -24 0
-114 113 0
114 24 -113 0
-115 25 0
-115 114 0
115 -25 -114 0
-116 25 0
-116 -115 0
116 -25 115 0
-117 26 0
-117 -116 0
117 -26 116 0
-118 26 0
-118 -117 0
118 -26 117 0
-119 27 0
-119 -118 0
119 -27 118 0
-120 27 0
-120 -119 0
120 -27 119 0
-121 -28 0
-121 -120 0
121 28 120 0
-122 29 0
-122 121 0
122 -29 -121 0
-123 29 0
-123 -122 0
123 -29 122 0
-124 30 0
-124 -123 0
124 -30 123 0
-125 30 0
-125 -124 0
125 -30 124 0
-126 31 0
-126 -125 0
126 -31 125 0
-127 31 0
-127 -126 0
127 -31 126 0
-128 -85 0
-128 -127 0
128 85 127 0
192 -1153 0
-192 1153 0
191 -1152 0
-191 1152 0
190 -1151 0
-190 1151 0
189 -1150 0
-189 1150 0
188 -1149 0
-188 1149 0
187 -1148 0
-187 1148 0
186 -1147 0
-186 1147 0
185 -1146 0
-185 1146 0
184 -1145 0
-184 1145 0
183 -1144 0
-183 1144 0
182 -1143 0
-182 1143 0
181 -1142 0
-181 1142 0
180 -1141 0
-180 1141 0
179 -1140 0
-179 1140 0
178 -1139 0
-178 1139 0
177 -1138 0
-177 1138 0
176 -1137 0
-176 1137 0
175 -1136 0
-175 1136 0
174 -1135 0
-174 1135 0
173 -1134 0
-173 1134 0
172 -1133 0
-172 1133 0
171 -1132 0
-171 1132 0
170 -1131 0
-170 1131 0
169 -1130 0
-169 1130 0
168 -1129 0
-168 1129 0
167 -1128 0
-167 1128 0
166 -1127 0
-166 1127 0
165 -1126 0
-165 1126 0
164 -1125 0
-164 1125 0
163 -1124 0
-163 1124 0
162 -1123 0
-162 1123 0
161 -1122 0
-161 1122 0
160 -1121 0
-160 1121 0
-383 30 0
-383 31 0
383 -30 -31 0
-376 29 0
-376 30 0
376 -29 -30 0
-369 28 0
-369 29 0
369 -28 -29 0
-362 27 0
-362 28 0
362 -27 -28 0
-355 26 0
-355 27 0
355 -26 -27 0
-348 25 0
-348 26 0
348 -25 -26 0
-341 24 0
-341 25 0
341 -24 -25 0
-334 23 0
-334 24 0
334 -23 -24 0
-327 22 0
-327 23 0
327 -22 -23 0
-320 21 0
-320 22 0
320 -21 -22 0
-313 20 0
-313 21 0
313 -20 -21 0
-306 19 0
-306 20 0
306 -19 -20 0
-299 18 0
-299 19 0
299 -18 -19 0
-292 17 0
-292 18 0
292 -17 -18 0
-285 16 0
-285 17 0
285 -16 -17 0
-278 15 0
-278 16 0
278 -15 -16 0
-271 14 0
-271 15 0
271 -14 -15 0
-264 13 0
-264 14 0
264 -13 -14 0
-257 12 0
-257 13 0
257 -12 -13 0
-250 11 0
-250 12 0
250 -11 -12 0
-243 10 0
-243 11 0
243 -10 -11 0
-236 9 0
-236 10 0
236 -9 -10 0
-229 8 0
-229 9 0
229 -8 -9 0
-222 7 0
-222 8 0
222 -7 -8 0
-215 6 0
-215 7 0
215 -6 -7 0
-208 5 0
-208 6 0
208 -5 -6 0
-201 4 0
-201 5 0
201 -4 -5 0
-194 3 0
-194 4 0
194 -3 -4 0
-195 -3 0
-195 -4 0
195 3 4 0
-196 -194 0
-196 -195 0
196 194 195 0
-197 32 0
-197 196 0
197 -32 -196 0
-200 -194 0
-200 -197 0
200 194 197 0
-202 -4 0
-202 -5 0
202 4 5 0
-203 -201 0
-203 -202 0
203 201 202 0
-204 -200 0
-204 203 0
204 200 -203 0
-207 -201 0
-207 -204 0
207 201 204 0
-209 -5 0
-209 -6 0
209 5 6 0
-210 -208 0
-210 -209 0
210 208 209 0
-211 -207 0
-211 210 0
211 207 -210 0
-214 -208 0
-214 -211 0
214 208 211 0
-216 -6 0
-216 -7 0
216 6 7 0
-217 -215 0
-217 -216 0
217 215 216 0
-218 -214 0
-218 217 0
218 214 -217 0
-221 -215 0
-221 -218 0
221 215 218 0
-223 -7 0
-223 -8 0
223 7 8 0
-224 -222 0
-224 -223 0
224 222 223 0
-225 -221 0
-225 224 0
225 221 -224 0
-228 -222 0
-228 -225 0
228 222 225 0
-230 -8 0
-230 -9 0
230 8 9 0
-231 -229 0
-231 -230 0
231 229 230 0
-232 -228 0
-232 231 0
232 228 -231 0
-235 -229 0
-235 -232 0
235 229 232 0
-237 -9 0
-237 -10 0
237 9 10 0
-238 -236 0
-238 -237 0
238 236 237 0
-239 -235 0
-239 238 0
239 235 -238 0
-242 -236 0
-242 -239 0
242 236 239 0
-244 -10 0
-244 -11 0
244 10 11 0
-245 -243 0
-245 -244 0
245 243 244 0
-246 -242 0
-246 245 0
246 242 -245 0
-249 -243 0
-249 -246 0
249 243 246 0
-251 -11 0
-251 -12 0
251 11 12 0
-252 -250 0
-252 -251 0
252 250 251 0
-253 -249 0
-253 252 0
253 249 -252 0
-256 -250 0
-256 -253 0
256 250 253 0
-258 -12 0
-258 -13 0
258 12 13 0
-259 -257 0
-259 -258 0
259 257 258 0
-260 -256 0
-260 259 0
260 256 -259 0
-263 -257 0
-263 -260 0
263 257 260 0
-265 -13 0
-265 -14 0
265 13 14 0
-266 -264 0
-266 -265 0
266 264 265 0
-267 -263 0
-267 266 0
267 263 -266 0
-270 -264 0
-270 -267 0
270 264 267 0
-272 -14 0
-272 -15 0
272 14 15 0
-273 -271 0
-273 -272 0
273 271 272 0
-274 -270 0
-274 273 0
274 270 -273 0
-277 -271 0
-277 -274 0
277 271 274 0
-279 -15 0
-279 -16 0
279 15 16 0
-280 -278 0
-280 -279 0
280 278 279 0
-281 -277 0
-281 280 0
281 277 -280 0
-284 -278 0
-284 -281 0
284 278 281 0
-286 -16 0
-286 -17 0
286 16 17 0
-287 -285 0
-287 -286 0
287 285 286 0
-288 -284 0
-288 287 0
288 284 -287 0
-291 -285 0
-291 -288 0
291 285 288 0
-293 -17 0
-293 -18 0
293 17 18 0
-294 -292 0
-294 -293 0
294 292 293 0
-295 -291 0
-295 294 0
295 291 -294 0
-298 -292 0
-298 -295 0
298 292 295 0
-300 -18 0
-300 -19 0
300 18 19 0
-301 -299 0
-301 -300 0
301 299 300 0
-302 -298 0
-302 301 0
302 298 -301 0
-305 -299 0
-305 -302 0
305 299 302 0
-307 -19 0
-307 -20 0
307 19 20 0
-308 -306 0
-308 -307 0
308 306 307 0
-309 -305 0
-309 308 0
309 305 -308 0
-312 -306 0
-312 -309 0
312 306 309 0
-314 -20 0
-314 -21 0
314 20 21 0
-315 -313 0
-315 -314 0
315 313 314 0
-316 -312 0
-316 315 0
316 312 -315 0
-319 -313 0
-319 -316 0
319 313 316 0
-321 -21 0
-321 -22 0
321 21 22 0
-322 -320 0
-322 -321 0
322 320 321 0
-323 -319 0
-323 322 0
323 319 -322 0
-326 -320 0
-326 -323 0
326 320 323 0
-328 -22 0
-328 -23 0
328 22 23 0
-329 -327 0
-329 -328 0
329 327 328 0
-330 -326 0
-330 329 0
330 326 -329 0
-333 -327 0
-333 -330 0
333 327 330 0
-335 -23 0
-335 -24 0
335 23 24 0
-336 -334 0
-336 -335 0
336 334 335 0
-337 -333 0
-337 336 0
337 333 -336 0
-340 -334 0
-340 -337 0
340 334 337 0
-342 -24 0
-342 -25 0
342 24 25 0
-343 -341 0
-343 -342 0
343 341 342 0
-344 -340 0
-344 343 0
344 340 -343 0
-347 -341 0
-347 -344 0
347 341 344 0
-349 -25 0
-349 -26 0
349 25 26 0
-350 -348 0
-350 -349 0
350 348 349 0
-351 -347 0
-351 350 0
351 347 -350 0
-354 -348 0
-354 -351 0
354 348 351 0
-356 -26 0
-356 -27 0
356 26 27 0
-357 -355 0
-357 -356 0
357 355 356 0
-358 -354 0
-358 357 0
358 354 -357 0
-361 -355 0
-361 -358 0
361 355 358 0
-363 -27 0
-363 -28 0
363 27 28 0
-364 -362 0
-364 -363 0
364 362 363 0
-365 -361 0
-365 364 0
365 361 -364 0
-368 -362 0
-368 -365 0
368 362 365 0
-370 -28 0
-370 -29 0
370 28 29 0
-371 -369 0
-371 -370 0
371 369 370 0
-372 -368 0
-372 371 0
372 368 -371 0
-375 -369 0
-375 -372 0
375 369 372 0
-377 -29 0
-377 -30 0
377 29 30 0
-378 -376 0
-378 -377 0
378 376 377 0
-379 -375 0
-379 378 0
379 375 -378 0
-382 -376 0
-382 -379 0
382 376 379 0
-384 -30 0
-384 -31 0
384 30 31 0
-385 -383 0
-385 -384 0
385 383 384 0
-386 -382 0
-386 385 0
386 382 -385 0
-389 -383 0
-389 -386 0
389 383 386 0
-390 31 0
-390 -389 0
390 -31 389 0
-391 -31 0
-391 389 0
391 31 -389 0
-392 -390 0
-392 -391 0
392 390 391 0
-387 382 0
-387 -385 0
387 -382 385 0
-388 -386 0
-388 -387 0
388 386 387 0
-380 375 0
-380 -378 0
380 -375 378 0
-381 -379 0
-381 -380 0
381 379 380 0
-373 368 0
-373 -371 0
373 -368 371 0
-374 -372 0
-374 -373 0
374 372 373 0
-366 361 0
-366 -364 0
366 -361 364 0
-367 -365 0
-367 -366 0
367 365 366 0
-359 354 0
-359 -357 0
359 -354 357 0
-360 -358 0
-360 -359 0
360 358 359 0
-352 347 0
-352 -350 0
352 -347 350 0
-353 -351 0
-353 -352 0
353 351 352 0
-345 340 0
-345 -343 0
345 -340 343 0
-346 -344 0
-346 -345 0
346 344 345 0
-338 333 0
-338 -336 0
338 -333 336 0
-339 -337 0
-339 -338 0
339 337 338 0
-331 326 0
-331 -329 0
331 -326 329 0
-332 -330 0
-332 -331 0
332 330 331 0
-324 319 0
-324 -322 0
324 -319 322 0
-325 -323 0
-325 -324 0
325 323 324 0
-317 312 0
-317 -315 0
317 -312 315 0
-318 -316 0
-318 -317 0
318 316 317 0
-310 305 0
-310 -308 0
310 -305 308 0
-311 -309 0
-311 -310 0
311 309 310 0
-303 298 0
-303 -301 0
303 -298 301 0
-304 -302 0
-304 -303 0
304 302 303 0
-296 291 0
-296 -294 0
296 -291 294 0
-297 -295 0
-297 -296 0
297 295 296 0
-289 284 0
-289 -287 0
289 -284 287 0
-290 -288 0
-290 -289 0
290 288 289 0
-282 277 0
-282 -280 0
282 -277 280 0
-283 -281 0
-283 -282 0
283 281 282 0
-275 270 0
-275 -273 0
275 -270 273 0
-276 -274 0
-276 -275 0
276 274 275 0
-268 263 0
-268 -266 0
268 -263 266 0
-269 -267 0
-269 -268 0
269 267 268 0
-261 256 0
-261 -259 0
261 -256 259 0
-262 -260 0
-262 -261 0
262 260 261 0
-254 249 0
-254 -252 0
254 -249 252 0
-255 -253 0
-255 -254 0
255 253 254 0
-247 242 0
-247 -245 0
247 -242 245 0
-248 -246 0
-248 -247 0
248 246 247 0
-240 235 0
-240 -238 0
240 -235 238 0
-241 -239 0
-241 -240 0
241 239 240 0
-233 228 0
-233 -231 0
233 -228 231 0
-234 -232 0
-234 -233 0
234 232 233 0
-226 221 0
-226 -224 0
226 -221 224 0
-227 -225 0
-227 -226 0
227 225 226 0
-219 214 0
-219 -217 0
219 -214 217 0
-220 -218 0
-220 -219 0
220 218 219 0
-212 207 0
-212 -210 0
212 -207 210 0
-213 -211 0
-213 -212 0
213 211 212 0
-205 200 0
-205 -203 0
205 -200 203 0
-206 -204 0
-206 -205 0
206 204 205 0
-198 -32 0
-198 -196 0
198 32 196 0
-199 -197 0
-199 -198 0
199 197 198 0
-193 -32 0
-193 -86 0
193 32 86 0
-393 2 0
-393 193 0
393 -2 -193 0
-396 199 0
-396 393 0
396 -199 -393 0
-399 206 0
-399 396 0
399 -206 -396 0
-402 213 0
-402 399 0
402 -213 -399 0
-405 220 0
-405 402 0
405 -220 -402 0
-408 227 0
-408 405 0
408 -227 -405 0
-411 234 0
-411 408 0
411 -234 -408 0
-414 241 0
-414 411 0
414 -241 -411 0
-417 248 0
-417 414 0
417 -248 -414 0
-420 255 0
-420 417 0
420 -255 -417 0
-423 262 0
-423 420 0
423 -262 -420 0
-426 269 0
-426 423 0
426 -269 -423 0
-429 276 0
-429 426 0
429 -276 -426 0
-432 283 0
-432 429 0
432 -283 -429 0
-435 290 0
-435 432 0
435 -290 -432 0
-438 297 0
-438 435 0
438 -297 -435 0
-441 304 0
-441 438 0
441 -304 -438 0
-444 311 0
-444 441 0
444 -311 -441 0
-447 318 0
-447 444 0
447 -318 -444 0
-450 325 0
-450 447 0
450 -325 -447 0
-453 332 0
-453 450 0
453 -332 -450 0
-456 339 0
-456 453 0
456 -339 -453 0
-459 346 0
-459 456 0
459 -346 -456 0
-462 353 0
-462 459 0
462 -353 -459 0
-465 360 0
-465 462 0
465 -360 -462 0
-468 367 0
-468 465 0
468 -367 -465 0
-471 374 0
-471 468 0
471 -374 -468 0
-474 381 0
-474 471 0
474 -381 -471 0
-477 388 0
-477 474 0
477 -388 -474 0
-480 392 0
-480 477 0
480 -392 -477 0
-483 390 0
-483 480 0
483 -390 -480 0
-579 160 0
-579 -483 0
579 -160 483 0
-580 -160 0
-580 483 0
580 160 -483 0
-581 -579 0
-581 -580 0
581 579 580 0
159 -1120 0
-159 1120 0
-484 -390 0
-484 -480 0
484 390 480 0
-485 -483 0
-485 -484 0
485 483 484 0
-576 159 0
-576 -485 0
576 -159 485 0
-577 -159 0
-577 485 0
577 159 -485 0
-578 -576 0
-578 -577 0
578 576 577 0
158 -1119 0
-158 1119 0
-481 -392 0
-481 -477 0
481 392 477 0
-482 -480 0
-482 -481 0
482 480 481 0
-573 158 0
-573 -482 0
573 -158 482 0
-574 -158 0
-574 482 0
574 158 -482 0
-575 -573 0
-575 -574 0
575 573 574 0
157 -1118 0
-157 1118 0
-478 -388 0
-478 -474 0
478 388 474 0
-479 -477 0
-479 -478 0
479 477 478 0
-570 157 0
-570 -479 0
570 -157 479 0
-571 -157 0
-571 479 0
571 157 -479 0
-572 -570 0
-572 -571 0
572 570 571 0
156 -1117 0
-156 1117 0
-475 -381 0
-475 -471 0
475 381 471 0
-476 -474 0
-476 -475 0
476 474 475 0
-567 156 0
-567 -476 0
567 -156 476 0
-568 -156 0
-568 476 0
568 156 -476 0
-569 -567 0
-569 -568 0
569 567 568 0
155 -1116 0
-155 1116 0
-472 -374 0
-472 -468 0
472 374 468 0
-473 -471 0
-473 -472 0
473 471 472 0
-564 155 0
-564 -473 0
564 -155 473 0
-565 -155 0
-565 473 0
565 155 -473 0
-566 -564 0
-566 -565 0
566 564 565 0
154 -1115 0
-154 1115 0
-469 -367 0
-469 -465 0
469 367 465 0
-470 -468 0
-470 -469 0
470 468 469 0
-561 154 0
-561 -470 0
561 -154 470 0
-562 -154 0
-562 470 0
562 154 -470 0
-563 -561 0
-563 -562 0
563 561 562 0
153 -1114 0
-153 1114 0
-466 -360 0
-466 -462 0
466 360 462 0
-467 -465 0
-467 -466 0
467 465 466 0
-558 153 0
-558 -467 0
558 -153 467 0
-559 -153 0
-559 467 0
559 153 -467 0
-560 -558 0
-560 -559 0
560 558 559 0
152 -1113 0
-152 1113 0
-463 -353 0
-463 -459 0
463 353 459 0
-464 -462 0
-464 -463 0
464 462 463 0
-555 152 0
-555 -464 0
555 -152 464 0
-556 -152 0
-556 464 0
556 152 -464 0
-557 -555 0
-557 -556 0
557 555 556 0
151 -1112 0
-151 1112 0
-460 -346 0
-460 -456 0
460 346 456 0
-461 -459 0
-461 -460 0
461 459 460 0
-552 151 0
-552 -461 0
552 -151 461 0
-553 -151 0
-553 461 0
553 151 -461 0
-554 -552 0
-554 -553 0
554 552 553 0
150 -1111 0
-150 1111 0
-457 -339 0
-457 -453 0
457 339 453 0
-458 -456 0
-458 -457 0
458 456 457 0
-549 150 0
-549 -458 0
549 -150 458 0
-550 -150 0
-550 458 0
550 150 -458 0
-551 -549 0
-551 -550 0
551 549 550 0
149 -1110 0
-149 1110 0
-454 -332 0
-454 -450 0
454 332 450 0
-455 -453 0
-455 -454 0
455 453 454 0
-546 149 0
-546 -455 0
546 -149 455 0
-547 -149 0
-547 455 0
547 149 -455 0
-548 -546 0
-548 -547 0
548 546 547 0
148 -1109 0
-148 1109 0
-451 -325 0
-451 -447 0
451 325 447 0
-452 -450 0
-452 -451 0
452 450 451 0
-543 148 0
-543 -452 0
543 -148 452 0
-544 -148 0
-544 452 0
544 148 -452 0
-545 -543 0
-545 -544 0
545 543 544 0
147 -1108 0
-147 1108 0
-448 -318 0
-448 -444 0
448 318 444 0
-449 -447 0
-449 -448 0
449 447 448 0
-540 147 0
-540 -449 0
540 -147 449 0
-541 -147 0
-541 449 0
541 147 -449 0
-542 -540 0
-542 -541 0
542 540 541 0
146 -1107 0
-146 1107 0
-445 -311 0
-445 -441 0
445 311 441 0
-446 -444 0
-446 -445 0
446 444 445 0
-537 146 0
-537 -446 0
537 -146 446 0
-538 -146 0
-538 446 0
538 146 -446 0
-539 -537 0
-539 -538 0
539 537 538 0
145 -1106 0
-145 1106 0
-442 -304 0
-442 -438 0
442 304 438 0
-443 -441 0
-443 -442 0
443 441 442 0
-534 145 0
-534 -443 0
534 -145 443 0
-535 -145 0
-535 443 0
535 145 -443 0
-536 -534 0
-536 -535 0
536 534 535 0
144 -1105 0
-144 1105 0
-439 -297 0
-439 -435 0
439 297 435 0
-440 -438 0
-440 -439 0
440 438 439 0
-531 144 0
-531 -440 0
531 -144 440 0
-532 -144 0
-532 440 0
532 144 -440 0
-533 -531 0
-533 -532 0
533 531 532 0
143 -1104 0
-143 1104 0
-436 -290 0
-436 -432 0
436 290 432 0
-437 -435 0
-437 -436 0
437 435 436 0
-528 143 0
-528 -437 0
528 -143 437 0
-529 -143 0
-529 437 0
529 143 -437 0
-530 -528 0
-530 -529 0
530 528 529 0
142 -1103 0
-142 1103 0
-433 -283 0
-433 -429 0
433 283 429 0
-434 -432 0
-434 -433 0
434 432 433 0
-525 142 0
-525 -434 0
525 -142 434 0
-526 -142 0
-526 434 0
526 142 -434 0
-527 -525 0
-527 -526 0
527 525 526 0
141 -1102 0
-141 1102 0
-430 -276 0
-430 -426 0
430 276 426 0
-431 -429 0
-431 -430 0
431 429 430 0
-522 141 0
-522 -431 0
522 -141 431 0
-523 -141 0
-523 431 0
523 141 -431 0
-524 -522 0
-524 -523 0
524 522 523 0
140 -1101 0
-140 1101 0
-427 -269 0
-427 -423 0
427 269 423 0
-428 -426 0
-428 -427 0
428 426 427 0
-519 140 0
-519 -428 0
519 -140 428 0
-520 -140 0
-520 428 0
520 140 -428 0
-521 -519 0
-521 -520 0
521 519 520 0
139 -1100 0
-139 1100 0
-424 -262 0
-424 -420 0
424 262 420 0
-425 -423 0
-425 -424 0
425 423 424 0
-516 139 0
-516 -425 0
516 -139 425 0
-517 -139 0
-517 425 0
517 139 -425 0
-518 -516 0
-518 -517 0
518 516 517 0
138 -1099 0
-138 1099 0
-421 -255 0
-421 -417 0
421 255 417 0
-422 -420 0
-422 -421 0
422 420 421 0
-513 138 0
-513 -422 0
513 -138 422 0
-514 -138 0
-514 422 0
514 138 -422 0
-515 -513 0
-515 -514 0
515 513 514 0
137 -1098 0
-137 1098 0
-418 -248 0
-418 -414 0
418 248 414 0
-419 -417 0
-419 -418 0
419 417 418 0
-510 137 0
-510 -419 0
510 -137 419 0
-511 -137 0
-511 419 0
511 137 -419 0
-512 -510 0
-512 -511 0
512 510 511 0
136 -1097 0
-136 1097 0
-415 -241 0
-415 -411 0
415 241 411 0
-416 -414 0
-416 -415 0
416 414 415 0
-507 136 0
-507 -416 0
507 -136 416 0
-508 -136 0
-508 416 0
508 136 -416 0
-509 -507 0
-509 -508 0
509 507 508 0
135 -1096 0
-135 1096 0
-412 -234 0
-412 -408 0
412 234 408 0
-413 -411 0
-413 -412 0
413 411 412 0
-504 135 0
-504 -413 0
504 -135 413 0
-505 -135 0
-505 413 0
505 135 -413 0
-506 -504 0
-506 -505 0
506 504 505 0
134 -1095 0
-134 1095 0
-409 -227 0
-409 -405 0
409 227 405 0
-410 -408 0
-410 -409 0
410 408 409 0
-501 134 0
-501 -410 0
501 -134 410 0
-502 -134 0
-502 410 0
502 134 -410 0
-503 -501 0
-503 -502 0
503 501 502 0
133 -1094 0
-133 1094 0
-406 -220 0
-406 -402 0
406 220 402 0
-407 -405 0
-407 -406 0
407 405 406 0
-498 133 0
-498 -407 0
498 -133 407 0
-499 -133 0
-499 407 0
499 133 -407 0
-500 -498 0
-500 -499 0
500 498 499 0
132 -1093 0
-132 1093 0
-403 -213 0
-403 -399 0
403 213 399 0
-404 -402 0
-404 -403 0
404 402 403 0
-495 132 0
-495 -404 0
495 -132 404 0
-496 -132 0
-496 404 0
496 132 -404 0
-497 -495 0
-497 -496 0
497 495 496 0
131 -1092 0
-131 1092 0
-400 -206 0
-400 -396 0
400 206 396 0
-401 -399 0
-401 -400 0
401 399 400 0
-492 131 0
-492 -401 0
492 -131 401 0
-493 -131 0
-493 401 0
493 131 -401 0
-494 -492 0
-494 -493 0
494 492 493 0
129 -1090 0
-129 1090 0
-394 -2 0
-394 -193 0
394 2 193 0
-395 -393 0
-395 -394 0
395 393 394 0
-486 129 0
-486 -395 0
486 -129 395 0
-487 -129 0
-487 395 0
487 129 -395 0
-488 -486 0
-488 -487 0
488 486 487 0
130 -1091 0
-130 1091 0
-397 -199 0
-397 -393 0
397 199 393 0
-398 -396 0
-398 -397 0
398 396 397 0
-489 130 0
-489 -398 0
489 -130 398 0
-490 -130 0
-490 398 0
490 130 -398 0
-491 -489 0
-491 -490 0
491 489 490 0
-582 488 0
-582 491 0
582 -488 -491 0
-583 494 0
-583 582 0
583 -494 -582 0
-584 497 0
-584 583 0
584 -497 -583 0
-585 500 0
-585 584 0
585 -500 -584 0
-586 503 0
-586 585 0
586 -503 -585 0
-587 506 0
-587 586 0
587 -506 -586 0
-588 509 0
-588 587 0
588 -509 -587 0
-589 512 0
-589 588 0
589 -512 -588 0
-590 515 0
-590 589 0
590 -515 -589 0
-591 518 0
-591 590 0
591 -518 -590 0
-592 521 0
-592 591 0
592 -521 -591 0
-593 524 0
-593 592 0
593 -524 -592 0
-594 527 0
-594 593 0
594 -527 -593 0
-595 530 0
-595 594 0
595 -530 -594 0
-596 533 0
-596 595 0
596 -533 -595 0
-597 536 0
-597 596 0
597 -536 -596 0
-598 539 0
-598 597 0
598 -539 -597 0
-599 542 0
-599 598 0
599 -542 -598 0
-600 545 0
-600 599 0
600 -545 -599 0
-601 548 0
-601 600 0
601 -548 -600 0
-602 551 0
-602 601 0
602 -551 -601 0
-603 554 0
-603 602 0
603 -554 -602 0
-604 557 0
-604 603 0
604 -557 -603 0
-605 560 0
-605 604 0
605 -560 -604 0
-606 563 0
-606 605 0
606 -563 -605 0
-607 566 0
-607 606 0
607 -566 -606 0
-608 569 0
-608 607 0
608 -569 -607 0
-609 572 0
-609 608 0
609 -572 -608 0
-610 575 0
-610 609 0
610 -575 -609 0
-611 578 0
-611 610 0
611 -578 -610 0
-612 581 0
-612 611 0
612 -581 -611 0
-613 -161 0
-613 612 0
613 161 -612 0
-614 -162 0
-614 613 0
614 162 -613 0
-615 -163 0
-615 614 0
615 163 -614 0
-616 -164 0
-616 615 0
616 164 -615 0
-617 -165 0
-617 616 0
617 165 -616 0
-618 -166 0
-618 617 0
618 166 -617 0
-619 -167 0
-619 618 0
619 167 -618 0
-620 -168 0
-620 619 0
620 168 -619 0
-621 -169 0
-621 620 0
621 169 -620 0
-622 -170 0
-622 621 0
622 170 -621 0
-623 -171 0
-623 622 0
623 171 -622 0
-624 -172 0
-624 623 0
624 172 -623 0
-625 -173 0
-625 624 0
625 173 -624 0
-626 -174 0
-626 625 0
626 174 -625 0
-627 -175 0
-627 626 0
627 175 -626 0
-628 -176 0
-628 627 0
628 176 -627 0
-629 -177 0
-629 628 0
629 177 -628 0
-630 -178 0
-630 629 0
630 178 -629 0
-631 -179 0
-631 630 0
631 179 -630 0
-632 -180 0
-632 631 0
632 180 -631 0
-633 -181 0
-633 632 0
633 181 -632 0
-634 -182 0
-634 633 0
634 182 -633 0
-635 -183 0
-635 634 0
635 183 -634 0
-636 -184 0
-636 635 0
636 184 -635 0
-637 -185 0
-637 636 0
637 185 -636 0
-638 -186 0
-638 637 0
638 186 -637 0
-639 -187 0
-639 638 0
639 187 -638 0
-640 -188 0
-640 639 0
640 188 -639 0
-641 -189 0
-641 640 0
641 189 -640 0
-642 -190 0
-642 641 0
642 190 -641 0
-643 -191 0
-643 642 0
643 191 -642 0
-644 -192 0
-644 643 0
644 192 -643 0
-645 2 0
-645 -644 0
645 -2 644 0
-646 128 0
-646 -645 0
646 -128 645 0
-731 -31 0
-731 157 0
731 31 -157 0
-732 31 0
-732 -157 0
732 -31 157 0
-733 -731 0
-733 -732 0
733 731 732 0
-728 -30 0
-728 156 0
728 30 -156 0
-729 30 0
-729 -156 0
729 -30 156 0
-730 -728 0
-730 -729 0
730 728 729 0
-725 -29 0
-725 155 0
725 29 -155 0
-726 29 0
-726 -155 0
726 -29 155 0
-727 -725 0
-727 -726 0
727 725 726 0
-722 -28 0
-722 154 0
722 28 -154 0
-723 28 0
-723 -154 0
723 -28 154 0
-724 -722 0
-724 -723 0
724 722 723 0
-719 -27 0
-719 153 0
719 27 -153 0
-720 27 0
-720 -153 0
720 -27 153 0
-721 -719 0
-721 -720 0
721 719 720 0
-716 -26 0
-716 152 0
716 26 -152 0
-717 26 0
-717 -152 0
717 -26 152 0
-718 -716 0
-718 -717 0
718 716 717 0
-713 -25 0
-713 151 0
713 25 -151 0
-714 25 0
-714 -151 0
714 -25 151 0
-715 -713 0
-715 -714 0
715 713 714 0
-710 -24 0
-710 150 0
710 24 -150 0
-711 24 0
-711 -150 0
711 -24 150 0
-712 -710 0
-712 -711 0
712 710 711 0
-707 -23 0
-707 149 0
707 23 -149 0
-708 23 0
-708 -149 0
708 -23 149 0
-709 -707 0
-709 -708 0
709 707 708 0
-704 -22 0
-704 148 0
704 22 -148 0
-705 22 0
-705 -148 0
705 -22 148 0
-706 -704 0
-706 -705 0
706 704 705 0
-701 -21 0
-701 147 0
701 21 -147 0
-702 21 0
-702 -147 0
702 -21 147 0
-703 -701 0
-703 -702 0
703 701 702 0
-698 -20 0
-698 146 0
698 20 -146 0
-699 20 0
-699 -146 0
699 -20 146 0
-700 -698 0
-700 -699 0
700 698 699 0
-695 -19 0
-695 145 0
695 19 -145 0
-696 19 0
-696 -145 0
696 -19 145 0
-697 -695 0
-697 -696 0
697 695 696 0
-692 -18 0
-692 144 0
692 18 -144 0
-693 18 0
-693 -144 0
693 -18 144 0
-694 -692 0
-694 -693 0
694 692 693 0
-689 -17 0
-689 143 0
689 17 -143 0
-690 17 0
-690 -143 0
690 -17 143 0
-691 -689 0
-691 -690 0
691 689 690 0
-686 -16 0
-686 142 0
686 16 -142 0
-687 16 0
-687 -142 0
687 -16 142 0
-688 -686 0
-688 -687 0
688 686 687 0
-683 -15 0
-683 141 0
683 15 -141 0
-684 15 0
-684 -141 0
684 -15 141 0
-685 -683 0
-685 -684 0
685 683 684 0
-680 -14 0
-680 140 0
680 14 -140 0
-681 14 0
-681 -140 0
681 -14 140 0
-682 -680 0
-682 -681 0
682 680 681 0
-677 -13 0
-677 139 0
677 13 -139 0
-678 13 0
-678 -139 0
678 -13 139 0
-679 -677 0
-679 -678 0
679 677 678 0
-674 -12 0
-674 138 0
674 12 -138 0
-675 12 0
-675 -138 0
675 -12 138 0
-676 -674 0
-676 -675 0
676 674 675 0
-671 -11 0
-671 137 0
671 11 -137 0
-672 11 0
-672 -137 0
672 -11 137 0
-673 -671 0
-673 -672 0
673 671 672 0
-668 -10 0
-668 136 0
668 10 -136 0
-669 10 0
-669 -136 0
669 -10 136 0
-670 -668 0
-670 -669 0
670 668 669 0
-665 -9 0
-665 135 0
665 9 -135 0
-666 9 0
-666 -135 0
666 -9 135 0
-667 -665 0
-667 -666 0
667 665 666 0
-662 -8 0
-662 134 0
662 8 -134 0
-663 8 0
-663 -134 0
663 -8 134 0
-664 -662 0
-664 -663 0
664 662 663 0
-659 -7 0
-659 133 0
659 7 -133 0
-660 7 0
-660 -133 0
660 -7 133 0
-661 -659 0
-661 -660 0
661 659 660 0
-656 -6 0
-656 132 0
656 6 -132 0
-657 6 0
-657 -132 0
657 -6 132 0
-658 -656 0
-658 -657 0
658 656 657 0
-653 -5 0
-653 131 0
653 5 -131 0
-654 5 0
-654 -131 0
654 -5 131 0
-655 -653 0
-655 -654 0
655 653 654 0
-647 -3 0
-647 129 0
647 3 -129 0
-648 3 0
-648 -129 0
648 -3 129 0
-649 -647 0
-649 -648 0
649 647 648 0
-650 -4 0
-650 130 0
650 4 -130 0
-651 4 0
-651 -130 0
651 -4 130 0
-652 -650 0
-652 -651 0
652 650 651 0
-734 649 0
-734 652 0
734 -649 -652 0
-735 655 0
-735 734 0
735 -655 -734 0
-736 658 0
-736 735 0
736 -658 -735 0
-737 661 0
-737 736 0
737 -661 -736 0
-738 664 0
-738 737 0
738 -664 -737 0
-739 667 0
-739 738 0
739 -667 -738 0
-740 670 0
-740 739 0
740 -670 -739 0
-741 673 0
-741 740 0
741 -673 -740 0
-742 676 0
-742 741 0
742 -676 -741 0
-743 679 0
-743 742 0
743 -679 -742 0
-744 682 0
-744 743 0
744 -682 -743 0
-745 685 0
-745 744 0
745 -685 -744 0
-746 688 0
-746 745 0
746 -688 -745 0
-747 691 0
-747 746 0
747 -691 -746 0
-748 694 0
-748 747 0
748 -694 -747 0
-749 697 0
-749 748 0
749 -697 -748 0
-750 700 0
-750 749 0
750 -700 -749 0
-751 703 0
-751 750 0
751 -703 -750 0
-752 706 0
-752 751 0
752 -706 -751 0
-753 709 0
-753 752 0
753 -709 -752 0
-754 712 0
-754 753 0
754 -712 -753 0
-755 715 0
-755 754 0
755 -715 -754 0
-756 718 0
-756 755 0
756 -718 -755 0
-757 721 0
-757 756 0
757 -721 -756 0
-758 724 0
-758 757 0
758 -724 -757 0
-759 727 0
-759 758 0
759 -727 -758 0
-760 730 0
-760 759 0
760 -730 -759 0
-761 733 0
-761 760 0
761 -733 -760 0
-762 -158 0
-762 761 0
762 158 -761 0
-763 -159 0
-763 762 0
763 159 -762 0
-764 -160 0
-764 763 0
764 160 -763 0
-765 -161 0
-765 764 0
765 161 -764 0
-766 -162 0
-766 765 0
766 162 -765 0
-767 -163 0
-767 766 0
767 163 -766 0
-768 -164 0
-768 767 0
768 164 -767 0
-769 -165 0
-769 768 0
769 165 -768 0
-770 -166 0
-770 769 0
770 166 -769 0
-771 -167 0
-771 770 0
771 167 -770 0
-772 -168 0
-772 771 0
772 168 -771 0
-773 -169 0
-773 772 0
773 169 -772 0
-774 -170 0
-774 773 0
774 170 -773 0
-775 -171 0
-775 774 0
775 171 -774 0
-776 -172 0
-776 775 0
776 172 -775 0
-777 -173 0
-777 776 0
777 173 -776 0
-778 -174 0
-778 777 0
778 174 -777 0
-779 -175 0
-779 778 0
779 175 -778 0
-780 -176 0
-780 779 0
780 176 -779 0
-781 -177 0
-781 780 0
781 177 -780 0
-782 -178 0
-782 781 0
782 178 -781 0
-783 -179 0
-783 782 0
783 179 -782 0
-784 -180 0
-784 783 0
784 180 -783 0
-785 -181 0
-785 784 0
785 181 -784 0
-786 -182 0
-786 785 0
786 182 -785 0
-787 -183 0
-787 786 0
787 183 -786 0
-788 -184 0
-788 787 0
788 184 -787 0
-789 -185 0
-789 788 0
789 185 -788 0
-790 -186 0
-790 789 0
790 186 -789 0
-791 -187 0
-791 790 0
791 187 -790 0
-792 -188 0
-792 791 0
792 188 -791 0
-793 -189 0
-793 792 0
793 189 -792 0
-794 -190 0
-794 793 0
794 190 -793 0
-795 -191 0
-795 794 0
795 191 -794 0
-796 -192 0
-796 795 0
796 192 -795 0
-797 -2 0
-797 -796 0
797 2 796 0
-798 646 0
-798 -797 0
798 -646 797 0
-985 -31 0
-985 158 0
985 31 -158 0
-980 -30 0
-980 157 0
980 30 -157 0
-975 -29 0
-975 156 0
975 29 -156 0
-970 -28 0
-970 155 0
970 28 -155 0
-965 -27 0
-965 154 0
965 27 -154 0
-960 -26 0
-960 153 0
960 26 -153 0
-955 -25 0
-955 152 0
955 25 -152 0
-950 -24 0
-950 151 0
950 24 -151 0
-945 -23 0
-945 150 0
945 23 -150 0
-940 -22 0
-940 149 0
940 22 -149 0
-935 -21 0
-935 148 0
935 21 -148 0
-930 -20 0
-930 147 0
930 20 -147 0
-925 -19 0
-925 146 0
925 19 -146 0
-920 -18 0
-920 145 0
920 18 -145 0
-915 -17 0
-915 144 0
915 17 -144 0
-910 -16 0
-910 143 0
910 16 -143 0
-905 -15 0
-905 142 0
905 15 -142 0
-900 -14 0
-900 141 0
900 14 -141 0
-895 -13 0
-895 140 0
895 13 -140 0
-890 -12 0
-890 139 0
890 12 -139 0
-885 -11 0
-885 138 0
885 11 -138 0
-880 -10 0
-880 137 0
880 10 -137 0
-875 -9 0
-875 136 0
875 9 -136 0
-870 -8 0
-870 135 0
870 8 -135 0
-865 -7 0
-865 134 0
865 7 -134 0
-860 -6 0
-860 133 0
860 6 -133 0
-855 -5 0
-855 132 0
855 5 -132 0
-850 -4 0
-850 131 0
850 4 -131 0
-845 -3 0
-845 130 0
845 3 -130 0
-841 -2 0
-841 129 0
841 2 -129 0
-842 2 0
-842 -129 0
842 -2 129 0
-843 -841 0
-843 -842 0
843 841 842 0
-844 -841 0
-844 -843 0
844 841 843 0
-846 3 0
-846 -130 0
846 -3 130 0
-847 -845 0
-847 -846 0
847 845 846 0
-848 -844 0
-848 847 0
848 844 -847 0
-849 -845 0
-849 -848 0
849 845 848 0
-851 4 0
-851 -131 0
851 -4 131 0
-852 -850 0
-852 -851 0
852 850 851 0
-853 -849 0
-853 852 0
853 849 -852 0
-854 -850 0
-854 -853 0
854 850 853 0
-856 5 0
-856 -132 0
856 -5 132 0
-857 -855 0
-857 -856 0
857 855 856 0
-858 -854 0
-858 857 0
858 854 -857 0
-859 -855 0
-859 -858 0
859 855 858 0
-861 6 0
-861 -133 0
861 -6 133 0
-862 -860 0
-862 -861 0
862 860 861 0
-863 -859 0
-863 862 0
863 859 -862 0
-864 -860 0
-864 -863 0
864 860 863 0
-866 7 0
-866 -134 0
866 -7 134 0
-867 -865 0
-867 -866 0
867 865 866 0
-868 -864 0
-868 867 0
868 864 -867 0
-869 -865 0
-869 -868 0
869 865 868 0
-871 8 0
-871 -135 0
871 -8 135 0
-872 -870 0
-872 -871 0
872 870 871 0
-873 -869 0
-873 872 0
873 869 -872 0
-874 -870 0
-874 -873 0
874 870 873 0
-876 9 0
-876 -136 0
876 -9 136 0
-877 -875 0
-877 -876 0
877 875 876 0
-878 -874 0
-878 877 0
878 874 -877 0
-879 -875 0
-879 -878 0
879 875 878 0
-881 10 0
-881 -137 0
881 -10 137 0
-882 -880 0
-882 -881 0
882 880 881 0
-883 -879 0
-883 882 0
883 879 -882 0
-884 -880 0
-884 -883 0
884 880 883 0
-886 11 0
-886 -138 0
886 -11 138 0
-887 -885 0
-887 -886 0
887 885 886 0
-888 -884 0
-888 887 0
888 884 -887 0
-889 -885 0
-889 -888 0
889 885 888 0
-891 12 0
-891 -139 0
891 -12 139 0
-892 -890 0
-892 -891 0
892 890 891 0
-893 -889 0
-893 892 0
893 889 -892 0
-894 -890 0
-894 -893 0
894 890 893 0
-896 13 0
-896 -140 0
896 -13 140 0
-897 -895 0
-897 -896 0
897 895 896 0
-898 -894 0
-898 897 0
898 894 -897 0
-899 -895 0
-899 -898 0
899 895 898 0
-901 14 0
-901 -141 0
901 -14 141 0
-902 -900 0
-902 -901 0
902 900 901 0
-903 -899 0
-903 902 0
903 899 -902 0
-904 -900 0
-904 -903 0
904 900 903 0
-906 15 0
-906 -142 0
906 -15 142 0
-907 -905 0
-907 -906 0
907 905 906 0
-908 -904 0
-908 907 0
908 904 -907 0
-909 -905 0
-909 -908 0
909 905 908 0
-911 16 0
-911 -143 0
911 -16 143 0
-912 -910 0
-912 -911 0
912 910 911 0
-913 -909 0
-913 912 0
913 909 -912 0
-914 -910 0
-914 -913 0
914 910 913 0
-916 17 0
-916 -144 0
916 -17 144 0
-917 -915 0
-917 -916 0
917 915 916 0
-918 -914 0
-918 917 0
918 914 -917 0
-919 -915 0
-919 -918 0
919 915 918 0
-921 18 0
-921 -145 0
921 -18 145 0
-922 -920 0
-922 -921 0
922 920 921 0
-923 -919 0
-923 922 0
923 919 -922 0
-924 -920 0
-924 -923 0
924 920 923 0
-926 19 0
-926 -146 0
926 -19 146 0
-927 -925 0
-927 -926 0
927 925 926 0
-928 -924 0
-928 927 0
928 924 -927 0
-929 -925 0
-929 -928 0
929 925 928 0
-931 20 0
-931 -147 0
931 -20 147 0
-932 -930 0
-932 -931 0
932 930 931 0
-933 -929 0
-933 932 0
933 929 -932 0
-934 -930 0
-934 -933 0
934 930 933 0
-936 21 0
-936 -148 0
936 -21 148 0
-937 -935 0
-937 -936 0
937 935 936 0
-938 -934 0
-938 937 0
938 934 -937 0
-939 -935 0
-939 -938 0
939 935 938 0
-941 22 0
-941 -149 0
941 -22 149 0
-942 -940 0
-942 -941 0
942 940 941 0
-943 -939 0
-943 942 0
943 939 -942 0
-944 -940 0
-944 -943 0
944 940 943 0
-946 23 0
-946 -150 0
946 -23 150 0
-947 -945 0
-947 -946 0
947 945 946 0
-948 -944 0
-948 947 0
948 944 -947 0
-949 -945 0
-949 -948 0
949 945 948 0
-951 24 0
-951 -151 0
951 -24 151 0
-952 -950 0
-952 -951 0
952 950 951 0
-953 -949 0
-953 952 0
953 949 -952 0
-954 -950 0
-954 -953 0
954 950 953 0
-956 25 0
-956 -152 0
956 -25 152 0
-957 -955 0
-957 -956 0
957 955 956 0
-958 -954 0
-958 957 0
958 954 -957 0
-959 -955 0
-959 -958 0
959 955 958 0
-961 26 0
-961 -153 0
961 -26 153 0
-962 -960 0
-962 -961 0
962 960 961 0
-963 -959 0
-963 962 0
963 959 -962 0
-964 -960 0
-964 -963 0
964 960 963 0
-966 27 0
-966 -154 0
966 -27 154 0
-967 -965 0
-967 -966 0
967 965 966 0
-968 -964 0
-968 967 0
968 964 -967 0
-969 -965 0
-969 -968 0
969 965 968 0
-971 28 0
-971 -155 0
971 -28 155 0
-972 -970 0
-972 -971 0
972 970 971 0
-973 -969 0
-973 972 0
973 969 -972 0
-974 -970 0
-974 -973 0
974 970 973 0
-976 29 0
-976 -156 0
976 -29 156 0
-977 -975 0
-977 -976 0
977 975 976 0
-978 -974 0
-978 977 0
978 974 -977 0
-979 -975 0
-979 -978 0
979 975 978 0
-981 30 0
-981 -157 0
981 -30 157 0
-982 -980 0
-982 -981 0
982 980 981 0
-983 -979 0
-983 982 0
983 979 -982 0
-984 -980 0
-984 -983 0
984 980 983 0
-986 31 0
-986 -158 0
986 -31 158 0
-987 -985 0
-987 -986 0
987 985 986 0
-988 -984 0
-988 987 0
988 984 -987 0
-989 -985 0
-989 -988 0
989 985 988 0
-990 -159 0
-990 -989 0
990 159 989 0
-991 -159 0
-991 -990 0
991 159 990 0
-992 -160 0
-992 -991 0
992 160 991 0
-993 -160 0
-993 -992 0
993 160 992 0
-994 -161 0
-994 -993 0
994 161 993 0
-995 -161 0
-995 -994 0
995 161 994 0
-996 -162 0
-996 -995 0
996 162 995 0
-997 -162 0
-997 -996 0
997 162 996 0
-998 -163 0
-998 -997 0
998 163 997 0
-999 -163 0
-999 -998 0
999 163 998 0
-1000 -164 0
-1000 -999 0
1000 164 999 0
-1001 -164 0
-1001 -1000 0
1001 164 1000 0
-1002 -165 0
-1002 -1001 0
1002 165 1001 0
-1003 -165 0
-1003 -1002 0
1003 165 1002 0
-1004 -166 0
-1004 -1003 0
1004 166 1003 0
-1005 -166 0
-1005 -1004 0
1005 166 1004 0
-1006 -167 0
-1006 -1005 0
1006 167 1005 0
-1007 -167 0
-1007 -1006 0
1007 167 1006 0
-1008 -168 0
-1008 -1007 0
1008 168 1007 0
-1009 -168 0
-1009 -1008 0
1009 168 1008 0
-1010 -169 0
-1010 -1009 0
1010 169 1009 0
-1011 -169 0
-1011 -1010 0
1011 169 1010 0
-1012 -170 0
-1012 -1011 0
1012 170 1011 0
-1013 -170 0
-1013 -1012 0
1013 170 1012 0
-1014 -171 0
-1014 -1013 0
1014 171 1013 0
-1015 -171 0
-1015 -1014 0
1015 171 1014 0
-1016 -172 0
-1016 -1015 0
1016 172 1015 0
-1017 -172 0
-1017 -1016 0
1017 172 1016 0
-1018 -173 0
-1018 -1017 0
1018 173 1017 0
-1019 -173 0
-1019 -1018 0
1019 173 1018 0
-1020 -174 0
-1020 -1019 0
1020 174 1019 0
-1021 -174 0
-1021 -1020 0
1021 174 1020 0
-1022 -175 0
-1022 -1021 0
1022 175 1021 0
-1023 -175 0
-1023 -1022 0
1023 175 1022 0
-1024 -176 0
-1024 -1023 0
1024 176 1023 0
-1025 -176 0
-1025 -1024 0
1025 176 1024 0
-1026 -177 0
-1026 -1025 0
1026 177 1025 0
-1027 -177 0
-1027 -1026 0
1027 177 1026 0
-1028 -178 0
-1028 -1027 0
1028 178 1027 0
-1029 -178 0
-1029 -1028 0
1029 178 1028 0
-1030 -179 0
-1030 -1029 0
1030 179 1029 0
-1031 -179 0
-1031 -1030 0
1031 179 1030 0
-1032 -180 0
-1032 -1031 0
1032 180 1031 0
-1033 -180 0
-1033 -1032 0
1033 180 1032 0
-1034 -181 0
-1034 -1033 0
1034 181 1033 0
-1035 -181 0
-1035 -1034 0
1035 181 1034 0
-1036 -182 0
-1036 -1035 0
1036 182 1035 0
-1037 -182 0
-1037 -1036 0
1037 182 1036 0
-1038 -183 0
-1038 -1037 0
1038 183 1037 0
-1039 -183 0
-1039 -1038 0
1039 183 1038 0
-1040 -184 0
-1040 -1039 0
1040 184 1039 0
-1041 -184 0
-1041 -1040 0
1041 184 1040 0
-1042 -185 0
-1042 -1041 0
1042 185 1041 0
-1043 -185 0
-1043 -1042 0
1043 185 1042 0
-1044 -186 0
-1044 -1043 0
1044 186 1043 0
-1045 -186 0
-1045 -1044 0
1045 186 1044 0
-1046 -187 0
-1046 -1045 0
1046 187 1045 0
-1047 -187 0
-1047 -1046 0
1047 187 1046 0
-1048 -188 0
-1048 -1047 0
1048 188 1047 0
-1049 -188 0
-1049 -1048 0
1049 188 1048 0
-1050 -189 0
-1050 -1049 0
1050 189 1049 0
-1051 -189 0
-1051 -1050 0
1051 189 1050 0
-1052 -190 0
-1052 -1051 0
1052 190 1051 0
-1053 -190 0
-1053 -1052 0
1053 190 1052 0
-1054 -191 0
-1054 -1053 0
1054 191 1053 0
-1055 -191 0
-1055 -1054 0
1055 191 1054 0
-1056 -192 0
-1056 -1055 0
1056 192 1055 0
-1057 -192 0
-1057 -1056 0
1057 192 1056 0
-1058 -2 0
-1058 -1057 0
1058 2 1057 0
-1059 798 0
-1059 1058 0
1059 -798 -1058 0
1059 0
