p cnf 7903 16334
328 -6189 0
-328 6189 0
4562 -7837 0
-4562 7837 0
-4567 328 0
-4567 -4562 0
4567 -328 4562 0
-4568 -328 0
-4568 4562 0
4568 328 -4562 0
-4569 -4567 0
-4569 -4568 0
4569 4567 4568 0
4570 -7838 0
-4570 7838 0
-4573 -4569 0
-4573 -4570 0
4573 4569 4570 0
-4571 4569 0
-4571 4570 0
4571 -4569 -4570 0
490 -6254 0
-490 6254 0
4554 -7836 0
-4554 7836 0
-4559 490 0
-4559 -4554 0
4559 -490 4554 0
-4560 -490 0
-4560 4554 0
4560 490 -4554 0
-4561 -4559 0
-4561 -4560 0
4561 4559 4560 0
-4565 -4561 0
-4565 -4562 0
4565 4561 4562 0
-4563 4561 0
-4563 4562 0
4563 -4561 -4562 0
652 -6319 0
-652 6319 0
4546 -7835 0
-4546 7835 0
-4551 652 0
-4551 -4546 0
4551 -652 4546 0
-4552 -652 0
-4552 4546 0
4552 652 -4546 0
-4553 -4551 0
-4553 -4552 0
4553 4551 4552 0
-4557 -4553 0
-4557 -4554 0
4557 4553 4554 0
-4555 4553 0
-4555 4554 0
4555 -4553 -4554 0
814 -6384 0
-814 6384 0
4538 -7834 0
-4538 7834 0
-4543 814 0
-4543 -4538 0
4543 -814 4538 0
-4544 -814 0
-4544 4538 0
4544 814 -4538 0
-4545 -4543 0
-4545 -4544 0
4545 4543 4544 0
-4549 -4545 0
-4549 -4546 0
4549 4545 4546 0
-4547 4545 0
-4547 4546 0
4547 -4545 -4546 0
976 -6449 0
-976 6449 0
4530 -7833 0
-4530 7833 0
-4535 976 0
-4535 -4530 0
4535 -976 4530 0
-4536 -976 0
-4536 4530 0
4536 976 -4530 0
-4537 -4535 0
-4537 -4536 0
4537 4535 4536 0
-4541 -4537 0
-4541 -4538 0
4541 4537 4538 0
-4539 4537 0
-4539 4538 0
4539 -4537 -4538 0
1138 -6514 0
-1138 6514 0
4522 -7832 0
-4522 7832 0
-4527 1138 0
-4527 -4522 0
4527 -1138 4522 0
-4528 -1138 0
-4528 4522 0
4528 1138 -4522 0
-4529 -4527 0
-4529 -4528 0
4529 4527 4528 0
-4533 -4529 0
-4533 -4530 0
4533 4529 4530 0
-4531 4529 0
-4531 4530 0
4531 -4529 -4530 0
1300 -6579 0
-1300 6579 0
4514 -7831 0
-4514 7831 0
-4519 1300 0
-4519 -4514 0
4519 -1300 4514 0
-4520 -1300 0
-4520 4514 0
4520 1300 -4514 0
-4521 -4519 0
-4521 -4520 0
4521 4519 4520 0
-4525 -4521 0
-4525 -4522 0
4525 4521 4522 0
-4523 4521 0
-4523 4522 0
4523 -4521 -4522 0
1462 -6644 0
-1462 6644 0
4506 -7830 0
-4506 7830 0
-4511 1462 0
-4511 -4506 0
4511 -1462 4506 0
-4512 -1462 0
-4512 4506 0
4512 1462 -4506 0
-4513 -4511 0
-4513 -4512 0
4513 4511 4512 0
-4517 -4513 0
-4517 -4514 0
4517 4513 4514 0
-4515 4513 0
-4515 4514 0
4515 -4513 -4514 0
1624 -6709 0
-1624 6709 0
4498 -7829 0
-4498 7829 0
-4503 1624 0
-4503 -4498 0
4503 -1624 4498 0
-4504 -1624 0
-4504 4498 0
4504 1624 -4498 0
-4505 -4503 0
-4505 -4504 0
4505 4503 4504 0
-4509 -4505 0
-4509 -4506 0
4509 4505 4506 0
-4507 4505 0
-4507 4506 0
4507 -4505 -4506 0
1786 -6774 0
-1786 6774 0
4490 -7828 0
-4490 7828 0
-4495 1786 0
-4495 -4490 0
4495 -1786 4490 0
-4496 -1786 0
-4496 4490 0
4496 1786 -4490 0
-4497 -4495 0
-4497 -4496 0
4497 4495 4496 0
-4501 -4497 0
-4501 -4498 0
4501 4497 4498 0
-4499 4497 0
-4499 4498 0
4499 -4497 -4498 0
1948 -6839 0
-1948 6839 0
4482 -7827 0
-4482 7827 0
-4487 1948 0
-4487 -4482 0
4487 -1948 4482 0
-4488 -1948 0
-4488 4482 0
4488 1948 -4482 0
-4489 -4487 0
-4489 -4488 0
4489 4487 4488 0
-4493 -4489 0
-4493 -4490 0
4493 4489 4490 0
-4491 4489 0
-4491 4490 0
4491 -4489 -4490 0
2110 -6904 0
-2110 6904 0
4474 -7826 0
-4474 7826 0
-4479 2110 0
-4479 -4474 0
4479 -2110 4474 0
-4480 -2110 0
-4480 4474 0
4480 2110 -4474 0
-4481 -4479 0
-4481 -4480 0
4481 4479 4480 0
-4485 -4481 0
-4485 -4482 0
4485 4481 4482 0
-4483 4481 0
-4483 4482 0
4483 -4481 -4482 0
2272 -6969 0
-2272 6969 0
4466 -7825 0
-4466 7825 0
-4471 2272 0
-4471 -4466 0
4471 -2272 4466 0
-4472 -2272 0
-4472 4466 0
4472 2272 -4466 0
-4473 -4471 0
-4473 -4472 0
4473 4471 4472 0
-4477 -4473 0
-4477 -4474 0
4477 4473 4474 0
-4475 4473 0
-4475 4474 0
4475 -4473 -4474 0
2434 -7034 0
-2434 7034 0
4458 -7824 0
-4458 7824 0
-4463 2434 0
-4463 -4458 0
4463 -2434 4458 0
-4464 -2434 0
-4464 4458 0
4464 2434 -4458 0
-4465 -4463 0
-4465 -4464 0
4465 4463 4464 0
-4469 -4465 0
-4469 -4466 0
4469 4465 4466 0
-4467 4465 0
-4467 4466 0
4467 -4465 -4466 0
2596 -7099 0
-2596 7099 0
4450 -7823 0
-4450 7823 0
-4455 2596 0
-4455 -4450 0
4455 -2596 4450 0
-4456 -2596 0
-4456 4450 0
4456 2596 -4450 0
-4457 -4455 0
-4457 -4456 0
4457 4455 4456 0
-4461 -4457 0
-4461 -4458 0
4461 4457 4458 0
-4459 4457 0
-4459 4458 0
4459 -4457 -4458 0
2758 -7164 0
-2758 7164 0
4442 -7822 0
-4442 7822 0
-4447 2758 0
-4447 -4442 0
4447 -2758 4442 0
-4448 -2758 0
-4448 4442 0
4448 2758 -4442 0
-4449 -4447 0
-4449 -4448 0
4449 4447 4448 0
-4453 -4449 0
-4453 -4450 0
4453 4449 4450 0
-4451 4449 0
-4451 4450 0
4451 -4449 -4450 0
2920 -7229 0
-2920 7229 0
4434 -7821 0
-4434 7821 0
-4439 2920 0
-4439 -4434 0
4439 -2920 4434 0
-4440 -2920 0
-4440 4434 0
4440 2920 -4434 0
-4441 -4439 0
-4441 -4440 0
4441 4439 4440 0
-4445 -4441 0
-4445 -4442 0
4445 4441 4442 0
-4443 4441 0
-4443 4442 0
4443 -4441 -4442 0
3082 -7294 0
-3082 7294 0
4426 -7820 0
-4426 7820 0
-4431 3082 0
-4431 -4426 0
4431 -3082 4426 0
-4432 -3082 0
-4432 4426 0
4432 3082 -4426 0
-4433 -4431 0
-4433 -4432 0
4433 4431 4432 0
-4437 -4433 0
-4437 -4434 0
4437 4433 4434 0
-4435 4433 0
-4435 4434 0
4435 -4433 -4434 0
3244 -7359 0
-3244 7359 0
4418 -7819 0
-4418 7819 0
-4423 3244 0
-4423 -4418 0
4423 -3244 4418 0
-4424 -3244 0
-4424 4418 0
4424 3244 -4418 0
-4425 -4423 0
-4425 -4424 0
4425 4423 4424 0
-4429 -4425 0
-4429 -4426 0
4429 4425 4426 0
-4427 4425 0
-4427 4426 0
4427 -4425 -4426 0
3406 -7424 0
-3406 7424 0
4410 -7818 0
-4410 7818 0
-4415 3406 0
-4415 -4410 0
4415 -3406 4410 0
-4416 -3406 0
-4416 4410 0
4416 3406 -4410 0
-4417 -4415 0
-4417 -4416 0
4417 4415 4416 0
-4421 -4417 0
-4421 -4418 0
4421 4417 4418 0
-4419 4417 0
-4419 4418 0
4419 -4417 -4418 0
3568 -7489 0
-3568 7489 0
4402 -7817 0
-4402 7817 0
-4407 3568 0
-4407 -4402 0
4407 -3568 4402 0
-4408 -3568 0
-4408 4402 0
4408 3568 -4402 0
-4409 -4407 0
-4409 -4408 0
4409 4407 4408 0
-4413 -4409 0
-4413 -4410 0
4413 4409 4410 0
-4411 4409 0
-4411 4410 0
4411 -4409 -4410 0
3730 -7554 0
-3730 7554 0
4394 -7816 0
-4394 7816 0
-4399 3730 0
-4399 -4394 0
4399 -3730 4394 0
-4400 -3730 0
-4400 4394 0
4400 3730 -4394 0
-4401 -4399 0
-4401 -4400 0
4401 4399 4400 0
-4405 -4401 0
-4405 -4402 0
4405 4401 4402 0
-4403 4401 0
-4403 4402 0
4403 -4401 -4402 0
3892 -7619 0
-3892 7619 0
4386 -7815 0
-4386 7815 0
-4391 3892 0
-4391 -4386 0
4391 -3892 4386 0
-4392 -3892 0
-4392 4386 0
4392 3892 -4386 0
-4393 -4391 0
-4393 -4392 0
4393 4391 4392 0
-4397 -4393 0
-4397 -4394 0
4397 4393 4394 0
-4395 4393 0
-4395 4394 0
4395 -4393 -4394 0
4216 -7749 0
-4216 7749 0
4378 -7814 0
-4378 7814 0
-4383 4216 0
-4383 -4378 0
4383 -4216 4378 0
-4384 -4216 0
-4384 4378 0
4384 4216 -4378 0
-4385 -4383 0
-4385 -4384 0
4385 4383 4384 0
-4389 -4385 0
-4389 -4386 0
4389 4385 4386 0
-4387 4385 0
-4387 4386 0
4387 -4385 -4386 0
4054 -7684 0
-4054 7684 0
-4381 -4054 0
-4381 4378 0
4381 4054 -4378 0
-4379 4054 0
-4379 -4378 0
4379 -4054 4378 0
31 -6122 0
-31 6122 0
30 -6121 0
-30 6121 0
29 -6120 0
-29 6120 0
28 -6119 0
-28 6119 0
27 -6118 0
-27 6118 0
26 -6117 0
-26 6117 0
25 -6116 0
-25 6116 0
24 -6115 0
-24 6115 0
23 -6114 0
-23 6114 0
22 -6113 0
-22 6113 0
21 -6112 0
-21 6112 0
20 -6111 0
-20 6111 0
19 -6110 0
-19 6110 0
18 -6109 0
-18 6109 0
17 -6108 0
-17 6108 0
16 -6107 0
-16 6107 0
15 -6106 0
-15 6106 0
14 -6105 0
-14 6105 0
13 -6104 0
-13 6104 0
12 -6103 0
-12 6103 0
11 -6102 0
-11 6102 0
10 -6101 0
-10 6101 0
9 -6100 0
-9 6100 0
8 -6099 0
-8 6099 0
7 -6098 0
-7 6098 0
6 -6097 0
-6 6097 0
5 -6096 0
-5 6096 0
4 -6095 0
-4 6095 0
2 -6093 0
-2 6093 0
3 -6094 0
-3 6094 0
-32 2 0
-32 3 0
32 -2 -3 0
-33 4 0
-33 32 0
33 -4 -32 0
-34 -5 0
-34 33 0
34 5 -33 0
-35 -5 0
-35 -34 0
35 5 34 0
-36 -6 0
-36 -35 0
36 6 35 0
-37 -6 0
-37 -36 0
37 6 36 0
-38 -7 0
-38 -37 0
38 7 37 0
-39 -7 0
-39 -38 0
39 7 38 0
-40 -8 0
-40 -39 0
40 8 39 0
-41 -8 0
-41 -40 0
41 8 40 0
-42 -9 0
-42 -41 0
42 9 41 0
-43 -9 0
-43 -42 0
43 9 42 0
-44 -10 0
-44 -43 0
44 10 43 0
-45 -10 0
-45 -44 0
45 10 44 0
-46 11 0
-46 -45 0
46 -11 45 0
-47 -12 0
-47 46 0
47 12 -46 0
-48 -12 0
-48 -47 0
48 12 47 0
-49 -13 0
-49 -48 0
49 13 48 0
-50 -13 0
-50 -49 0
50 13 49 0
-51 14 0
-51 -50 0
51 -14 50 0
-52 -15 0
-52 51 0
52 15 -51 0
-53 -15 0
-53 -52 0
53 15 52 0
-54 -16 0
-54 -53 0
54 16 53 0
-55 -16 0
-55 -54 0
55 16 54 0
-56 -17 0
-56 -55 0
56 17 55 0
-57 -17 0
-57 -56 0
57 17 56 0
-58 -18 0
-58 -57 0
58 18 57 0
-59 -18 0
-59 -58 0
59 18 58 0
-60 -19 0
-60 -59 0
60 19 59 0
-61 -19 0
-61 -60 0
61 19 60 0
-62 -20 0
-62 -61 0
62 20 61 0
-63 -20 0
-63 -62 0
63 20 62 0
-64 -21 0
-64 -63 0
64 21 63 0
-65 -21 0
-65 -64 0
65 21 64 0
-66 -22 0
-66 -65 0
66 22 65 0
-67 -22 0
-67 -66 0
67 22 66 0
-68 -23 0
-68 -67 0
68 23 67 0
-69 -23 0
-69 -68 0
69 23 68 0
-70 -24 0
-70 -69 0
70 24 69 0
-71 -24 0
-71 -70 0
71 24 70 0
-72 -25 0
-72 -71 0
72 25 71 0
-73 -25 0
-73 -72 0
73 25 72 0
-74 -26 0
-74 -73 0
74 26 73 0
-75 -26 0
-75 -74 0
75 26 74 0
-76 -27 0
-76 -75 0
76 27 75 0
-77 -27 0
-77 -76 0
77 27 76 0
-78 -28 0
-78 -77 0
78 28 77 0
-79 -28 0
-79 -78 0
79 28 78 0
-80 -29 0
-80 -79 0
80 29 79 0
-81 -29 0
-81 -80 0
81 29 80 0
-82 -30 0
-82 -81 0
82 30 81 0
-83 -30 0
-83 -82 0
83 30 82 0
-84 -31 0
-84 -83 0
84 31 83 0
-85 -31 0
-85 -84 0
85 31 84 0
-86 -3 0
-86 -4 0
86 3 4 0
-87 -5 0
-87 86 0
87 5 -86 0
-88 -6 0
-88 87 0
88 6 -87 0
-89 7 0
-89 88 0
89 -7 -88 0
-90 7 0
-90 -89 0
90 -7 89 0
-91 -8 0
-91 -90 0
91 8 90 0
-92 9 0
-92 91 0
92 -9 -91 0
-93 9 0
-93 -92 0
93 -9 92 0
-94 10 0
-94 -93 0
94 -10 93 0
-95 10 0
-95 -94 0
95 -10 94 0
-96 -11 0
-96 -95 0
96 11 95 0
-97 12 0
-97 96 0
97 -12 -96 0
-98 12 0
-98 -97 0
98 -12 97 0
-99 -13 0
-99 -98 0
99 13 98 0
-100 -14 0
-100 99 0
100 14 -99 0
-101 15 0
-101 100 0
101 -15 -100 0
-102 15 0
-102 -101 0
102 -15 101 0
-103 16 0
-103 -102 0
103 -16 102 0
-104 16 0
-104 -103 0
104 -16 103 0
-105 -17 0
-105 -104 0
105 17 104 0
-106 -18 0
-106 105 0
106 18 -105 0
-107 -19 0
-107 106 0
107 19 -106 0
-108 -20 0
-108 107 0
108 20 -107 0
-109 -21 0
-109 108 0
109 21 -108 0
-110 -22 0
-110 109 0
110 22 -109 0
-111 -23 0
-111 110 0
111 23 -110 0
-112 -24 0
-112 111 0
112 24 -111 0
-113 -25 0
-113 112 0
113 25 -112 0
-114 -26 0
-114 113 0
114 26 -113 0
-115 -27 0
-115 114 0
115 27 -114 0
-116 -28 0
-116 115 0
116 28 -115 0
-117 -29 0
-117 116 0
117 29 -116 0
-118 -30 0
-118 117 0
118 30 -117 0
-119 -31 0
-119 118 0
119 31 -118 0
-120 -85 0
-120 119 0
120 85 -119 0
164 -6123 0
-164 6123 0
-165 120 0
-165 164 0
165 -120 -164 0
166 -6124 0
-166 6124 0
229 -6187 0
-229 6187 0
228 -6186 0
-228 6186 0
227 -6185 0
-227 6185 0
226 -6184 0
-226 6184 0
225 -6183 0
-225 6183 0
224 -6182 0
-224 6182 0
223 -6181 0
-223 6181 0
222 -6180 0
-222 6180 0
221 -6179 0
-221 6179 0
220 -6178 0
-220 6178 0
219 -6177 0
-219 6177 0
218 -6176 0
-218 6176 0
217 -6175 0
-217 6175 0
216 -6174 0
-216 6174 0
215 -6173 0
-215 6173 0
214 -6172 0
-214 6172 0
213 -6171 0
-213 6171 0
212 -6170 0
-212 6170 0
211 -6169 0
-211 6169 0
210 -6168 0
-210 6168 0
209 -6167 0
-209 6167 0
208 -6166 0
-208 6166 0
207 -6165 0
-207 6165 0
206 -6164 0
-206 6164 0
205 -6163 0
-205 6163 0
204 -6162 0
-204 6162 0
203 -6161 0
-203 6161 0
202 -6160 0
-202 6160 0
201 -6159 0
-201 6159 0
200 -6158 0
-200 6158 0
199 -6157 0
-199 6157 0
198 -6156 0
-198 6156 0
197 -6155 0
-197 6155 0
196 -6154 0
-196 6154 0
195 -6153 0
-195 6153 0
194 -6152 0
-194 6152 0
193 -6151 0
-193 6151 0
192 -6150 0
-192 6150 0
191 -6149 0
-191 6149 0
190 -6148 0
-190 6148 0
189 -6147 0
-189 6147 0
188 -6146 0
-188 6146 0
187 -6145 0
-187 6145 0
186 -6144 0
-186 6144 0
185 -6143 0
-185 6143 0
184 -6142 0
-184 6142 0
183 -6141 0
-183 6141 0
182 -6140 0
-182 6140 0
181 -6139 0
-181 6139 0
180 -6138 0
-180 6138 0
179 -6137 0
-179 6137 0
178 -6136 0
-178 6136 0
177 -6135 0
-177 6135 0
176 -6134 0
-176 6134 0
175 -6133 0
-175 6133 0
174 -6132 0
-174 6132 0
173 -6131 0
-173 6131 0
172 -6130 0
-172 6130 0
171 -6129 0
-171 6129 0
170 -6128 0
-170 6128 0
169 -6127 0
-169 6127 0
168 -6126 0
-168 6126 0
167 -6125 0
-167 6125 0
-230 -166 0
-230 -167 0
230 166 167 0
-231 168 0
-231 230 0
231 -168 -230 0
-232 168 0
-232 -231 0
232 -168 231 0
-233 -169 0
-233 -232 0
233 169 232 0
-234 170 0
-234 233 0
234 -170 -233 0
-235 170 0
-235 -234 0
235 -170 234 0
-236 -171 0
-236 -235 0
236 171 235 0
-237 172 0
-237 236 0
237 -172 -236 0
-238 172 0
-238 -237 0
238 -172 237 0
-239 -173 0
-239 -238 0
239 173 238 0
-240 174 0
-240 239 0
240 -174 -239 0
-241 174 0
-241 -240 0
241 -174 240 0
-242 -175 0
-242 -241 0
242 175 241 0
-243 176 0
-243 242 0
243 -176 -242 0
-244 176 0
-244 -243 0
244 -176 243 0
-245 -177 0
-245 -244 0
245 177 244 0
-246 178 0
-246 245 0
246 -178 -245 0
-247 178 0
-247 -246 0
247 -178 246 0
-248 -179 0
-248 -247 0
248 179 247 0
-249 180 0
-249 248 0
249 -180 -248 0
-250 180 0
-250 -249 0
250 -180 249 0
-251 -181 0
-251 -250 0
251 181 250 0
-252 182 0
-252 251 0
252 -182 -251 0
-253 182 0
-253 -252 0
253 -182 252 0
-254 -183 0
-254 -253 0
254 183 253 0
-255 184 0
-255 254 0
255 -184 -254 0
-256 184 0
-256 -255 0
256 -184 255 0
-257 -185 0
-257 -256 0
257 185 256 0
-258 186 0
-258 257 0
258 -186 -257 0
-259 186 0
-259 -258 0
259 -186 258 0
-260 -187 0
-260 -259 0
260 187 259 0
-261 188 0
-261 260 0
261 -188 -260 0
-262 188 0
-262 -261 0
262 -188 261 0
-263 -189 0
-263 -262 0
263 189 262 0
-264 190 0
-264 263 0
264 -190 -263 0
-265 190 0
-265 -264 0
265 -190 264 0
-266 -191 0
-266 -265 0
266 191 265 0
-267 192 0
-267 266 0
267 -192 -266 0
-268 192 0
-268 -267 0
268 -192 267 0
-269 -193 0
-269 -268 0
269 193 268 0
-270 194 0
-270 269 0
270 -194 -269 0
-271 194 0
-271 -270 0
271 -194 270 0
-272 -195 0
-272 -271 0
272 195 271 0
-273 196 0
-273 272 0
273 -196 -272 0
-274 196 0
-274 -273 0
274 -196 273 0
-275 -197 0
-275 -274 0
275 197 274 0
-276 198 0
-276 275 0
276 -198 -275 0
-277 198 0
-277 -276 0
277 -198 276 0
-278 -199 0
-278 -277 0
278 199 277 0
-279 200 0
-279 278 0
279 -200 -278 0
-280 200 0
-280 -279 0
280 -200 279 0
-281 -201 0
-281 -280 0
281 201 280 0
-282 202 0
-282 281 0
282 -202 -281 0
-283 202 0
-283 -282 0
283 -202 282 0
-284 -203 0
-284 -283 0
284 203 283 0
-285 204 0
-285 284 0
285 -204 -284 0
-286 204 0
-286 -285 0
286 -204 285 0
-287 -205 0
-287 -286 0
287 205 286 0
-288 206 0
-288 287 0
288 -206 -287 0
-289 206 0
-289 -288 0
289 -206 288 0
-290 -207 0
-290 -289 0
290 207 289 0
-291 208 0
-291 290 0
291 -208 -290 0
-292 208 0
-292 -291 0
292 -208 291 0
-293 -209 0
-293 -292 0
293 209 292 0
-294 210 0
-294 293 0
294 -210 -293 0
-295 210 0
-295 -294 0
295 -210 294 0
-296 -211 0
-296 -295 0
296 211 295 0
-297 212 0
-297 296 0
297 -212 -296 0
-298 212 0
-298 -297 0
298 -212 297 0
-299 -213 0
-299 -298 0
299 213 298 0
-300 214 0
-300 299 0
300 -214 -299 0
-301 214 0
-301 -300 0
301 -214 300 0
-302 -215 0
-302 -301 0
302 215 301 0
-303 216 0
-303 302 0
303 -216 -302 0
-304 216 0
-304 -303 0
304 -216 303 0
-305 -217 0
-305 -304 0
305 217 304 0
-306 218 0
-306 305 0
306 -218 -305 0
-307 218 0
-307 -306 0
307 -218 306 0
-308 -219 0
-308 -307 0
308 219 307 0
-309 220 0
-309 308 0
309 -220 -308 0
-310 220 0
-310 -309 0
310 -220 309 0
-311 -221 0
-311 -310 0
311 221 310 0
-312 222 0
-312 311 0
312 -222 -311 0
-313 222 0
-313 -312 0
313 -222 312 0
-314 -223 0
-314 -313 0
314 223 313 0
-315 224 0
-315 314 0
315 -224 -314 0
-316 224 0
-316 -315 0
316 -224 315 0
-317 -225 0
-317 -316 0
317 225 316 0
-318 226 0
-318 317 0
318 -226 -317 0
-319 226 0
-319 -318 0
319 -226 318 0
-320 -227 0
-320 -319 0
320 227 319 0
-321 228 0
-321 320 0
321 -228 -320 0
-322 228 0
-322 -321 0
322 -228 321 0
-323 -229 0
-323 -322 0
323 229 322 0
-324 166 0
-324 -323 0
324 -166 323 0
-325 165 0
-325 -324 0
325 -165 324 0
326 -6188 0
-326 6188 0
-327 325 0
-327 326 0
327 -325 -326 0
391 -6252 0
-391 6252 0
390 -6251 0
-390 6251 0
389 -6250 0
-389 6250 0
388 -6249 0
-388 6249 0
387 -6248 0
-387 6248 0
386 -6247 0
-386 6247 0
385 -6246 0
-385 6246 0
384 -6245 0
-384 6245 0
383 -6244 0
-383 6244 0
382 -6243 0
-382 6243 0
381 -6242 0
-381 6242 0
380 -6241 0
-380 6241 0
379 -6240 0
-379 6240 0
378 -6239 0
-378 6239 0
377 -6238 0
-377 6238 0
376 -6237 0
-376 6237 0
375 -6236 0
-375 6236 0
374 -6235 0
-374 6235 0
373 -6234 0
-373 6234 0
372 -6233 0
-372 6233 0
371 -6232 0
-371 6232 0
370 -6231 0
-370 6231 0
369 -6230 0
-369 6230 0
368 -6229 0
-368 6229 0
367 -6228 0
-367 6228 0
366 -6227 0
-366 6227 0
365 -6226 0
-365 6226 0
364 -6225 0
-364 6225 0
363 -6224 0
-363 6224 0
362 -6223 0
-362 6223 0
361 -6222 0
-361 6222 0
360 -6221 0
-360 6221 0
359 -6220 0
-359 6220 0
358 -6219 0
-358 6219 0
357 -6218 0
-357 6218 0
356 -6217 0
-356 6217 0
355 -6216 0
-355 6216 0
354 -6215 0
-354 6215 0
353 -6214 0
-353 6214 0
352 -6213 0
-352 6213 0
351 -6212 0
-351 6212 0
350 -6211 0
-350 6211 0
349 -6210 0
-349 6210 0
348 -6209 0
-348 6209 0
347 -6208 0
-347 6208 0
346 -6207 0
-346 6207 0
345 -6206 0
-345 6206 0
344 -6205 0
-344 6205 0
343 -6204 0
-343 6204 0
342 -6203 0
-342 6203 0
341 -6202 0
-341 6202 0
340 -6201 0
-340 6201 0
339 -6200 0
-339 6200 0
338 -6199 0
-338 6199 0
337 -6198 0
-337 6198 0
336 -6197 0
-336 6197 0
335 -6196 0
-335 6196 0
334 -6195 0
-334 6195 0
333 -6194 0
-333 6194 0
332 -6193 0
-332 6193 0
331 -6192 0
-331 6192 0
330 -6191 0
-330 6191 0
329 -6190 0
-329 6190 0
-392 -328 0
-392 -329 0
392 328 329 0
-393 330 0
-393 392 0
393 -330 -392 0
-394 330 0
-394 -393 0
394 -330 393 0
-395 -331 0
-395 -394 0
395 331 394 0
-396 332 0
-396 395 0
396 -332 -395 0
-397 332 0
-397 -396 0
397 -332 396 0
-398 -333 0
-398 -397 0
398 333 397 0
-399 334 0
-399 398 0
399 -334 -398 0
-400 334 0
-400 -399 0
400 -334 399 0
-401 -335 0
-401 -400 0
401 335 400 0
-402 336 0
-402 401 0
402 -336 -401 0
-403 336 0
-403 -402 0
403 -336 402 0
-404 -337 0
-404 -403 0
404 337 403 0
-405 338 0
-405 404 0
405 -338 -404 0
-406 338 0
-406 -405 0
406 -338 405 0
-407 -339 0
-407 -406 0
407 339 406 0
-408 340 0
-408 407 0
408 -340 -407 0
-409 340 0
-409 -408 0
409 -340 408 0
-410 -341 0
-410 -409 0
410 341 409 0
-411 342 0
-411 410 0
411 -342 -410 0
-412 342 0
-412 -411 0
412 -342 411 0
-413 -343 0
-413 -412 0
413 343 412 0
-414 344 0
-414 413 0
414 -344 -413 0
-415 344 0
-415 -414 0
415 -344 414 0
-416 -345 0
-416 -415 0
416 345 415 0
-417 346 0
-417 416 0
417 -346 -416 0
-418 346 0
-418 -417 0
418 -346 417 0
-419 -347 0
-419 -418 0
419 347 418 0
-420 348 0
-420 419 0
420 -348 -419 0
-421 348 0
-421 -420 0
421 -348 420 0
-422 -349 0
-422 -421 0
422 349 421 0
-423 350 0
-423 422 0
423 -350 -422 0
-424 350 0
-424 -423 0
424 -350 423 0
-425 -351 0
-425 -424 0
425 351 424 0
-426 352 0
-426 425 0
426 -352 -425 0
-427 352 0
-427 -426 0
427 -352 426 0
-428 -353 0
-428 -427 0
428 353 427 0
-429 354 0
-429 428 0
429 -354 -428 0
-430 354 0
-430 -429 0
430 -354 429 0
-431 -355 0
-431 -430 0
431 355 430 0
-432 356 0
-432 431 0
432 -356 -431 0
-433 356 0
-433 -432 0
433 -356 432 0
-434 -357 0
-434 -433 0
434 357 433 0
-435 358 0
-435 434 0
435 -358 -434 0
-436 358 0
-436 -435 0
436 -358 435 0
-437 -359 0
-437 -436 0
437 359 436 0
-438 360 0
-438 437 0
438 -360 -437 0
-439 360 0
-439 -438 0
439 -360 438 0
-440 -361 0
-440 -439 0
440 361 439 0
-441 362 0
-441 440 0
441 -362 -440 0
-442 362 0
-442 -441 0
442 -362 441 0
-443 -363 0
-443 -442 0
443 363 442 0
-444 364 0
-444 443 0
444 -364 -443 0
-445 364 0
-445 -444 0
445 -364 444 0
-446 -365 0
-446 -445 0
446 365 445 0
-447 366 0
-447 446 0
447 -366 -446 0
-448 366 0
-448 -447 0
448 -366 447 0
-449 -367 0
-449 -448 0
449 367 448 0
-450 368 0
-450 449 0
450 -368 -449 0
-451 368 0
-451 -450 0
451 -368 450 0
-452 -369 0
-452 -451 0
452 369 451 0
-453 370 0
-453 452 0
453 -370 -452 0
-454 370 0
-454 -453 0
454 -370 453 0
-455 -371 0
-455 -454 0
455 371 454 0
-456 372 0
-456 455 0
456 -372 -455 0
-457 372 0
-457 -456 0
457 -372 456 0
-458 -373 0
-458 -457 0
458 373 457 0
-459 374 0
-459 458 0
459 -374 -458 0
-460 374 0
-460 -459 0
460 -374 459 0
-461 -375 0
-461 -460 0
461 375 460 0
-462 376 0
-462 461 0
462 -376 -461 0
-463 376 0
-463 -462 0
463 -376 462 0
-464 -377 0
-464 -463 0
464 377 463 0
-465 378 0
-465 464 0
465 -378 -464 0
-466 378 0
-466 -465 0
466 -378 465 0
-467 -379 0
-467 -466 0
467 379 466 0
-468 380 0
-468 467 0
468 -380 -467 0
-469 380 0
-469 -468 0
469 -380 468 0
-470 -381 0
-470 -469 0
470 381 469 0
-471 382 0
-471 470 0
471 -382 -470 0
-472 382 0
-472 -471 0
472 -382 471 0
-473 -383 0
-473 -472 0
473 383 472 0
-474 384 0
-474 473 0
474 -384 -473 0
-475 384 0
-475 -474 0
475 -384 474 0
-476 -385 0
-476 -475 0
476 385 475 0
-477 386 0
-477 476 0
477 -386 -476 0
-478 386 0
-478 -477 0
478 -386 477 0
-479 -387 0
-479 -478 0
479 387 478 0
-480 388 0
-480 479 0
480 -388 -479 0
-481 388 0
-481 -480 0
481 -388 480 0
-482 -389 0
-482 -481 0
482 389 481 0
-483 390 0
-483 482 0
483 -390 -482 0
-484 390 0
-484 -483 0
484 -390 483 0
-485 -391 0
-485 -484 0
485 391 484 0
-486 328 0
-486 -485 0
486 -328 485 0
-487 327 0
-487 -486 0
487 -327 486 0
488 -6253 0
-488 6253 0
-489 487 0
-489 488 0
489 -487 -488 0
553 -6317 0
-553 6317 0
552 -6316 0
-552 6316 0
551 -6315 0
-551 6315 0
550 -6314 0
-550 6314 0
549 -6313 0
-549 6313 0
548 -6312 0
-548 6312 0
547 -6311 0
-547 6311 0
546 -6310 0
-546 6310 0
545 -6309 0
-545 6309 0
544 -6308 0
-544 6308 0
543 -6307 0
-543 6307 0
542 -6306 0
-542 6306 0
541 -6305 0
-541 6305 0
540 -6304 0
-540 6304 0
539 -6303 0
-539 6303 0
538 -6302 0
-538 6302 0
537 -6301 0
-537 6301 0
536 -6300 0
-536 6300 0
535 -6299 0
-535 6299 0
534 -6298 0
-534 6298 0
533 -6297 0
-533 6297 0
532 -6296 0
-532 6296 0
531 -6295 0
-531 6295 0
530 -6294 0
-530 6294 0
529 -6293 0
-529 6293 0
528 -6292 0
-528 6292 0
527 -6291 0
-527 6291 0
526 -6290 0
-526 6290 0
525 -6289 0
-525 6289 0
524 -6288 0
-524 6288 0
523 -6287 0
-523 6287 0
522 -6286 0
-522 6286 0
521 -6285 0
-521 6285 0
520 -6284 0
-520 6284 0
519 -6283 0
-519 6283 0
518 -6282 0
-518 6282 0
517 -6281 0
-517 6281 0
516 -6280 0
-516 6280 0
515 -6279 0
-515 6279 0
514 -6278 0
-514 6278 0
513 -6277 0
-513 6277 0
512 -6276 0
-512 6276 0
511 -6275 0
-511 6275 0
510 -6274 0
-510 6274 0
509 -6273 0
-509 6273 0
508 -6272 0
-508 6272 0
507 -6271 0
-507 6271 0
506 -6270 0
-506 6270 0
505 -6269 0
-505 6269 0
504 -6268 0
-504 6268 0
503 -6267 0
-503 6267 0
502 -6266 0
-502 6266 0
501 -6265 0
-501 6265 0
500 -6264 0
-500 6264 0
499 -6263 0
-499 6263 0
498 -6262 0
-498 6262 0
497 -6261 0
-497 6261 0
496 -6260 0
-496 6260 0
495 -6259 0
-495 6259 0
494 -6258 0
-494 6258 0
493 -6257 0
-493 6257 0
492 -6256 0
-492 6256 0
491 -6255 0
-491 6255 0
-554 -490 0
-554 -491 0
554 490 491 0
-555 492 0
-555 554 0
555 -492 -554 0
-556 492 0
-556 -555 0
556 -492 555 0
-557 -493 0
-557 -556 0
557 493 556 0
-558 494 0
-558 557 0
558 -494 -557 0
-559 494 0
-559 -558 0
559 -494 558 0
-560 -495 0
-560 -559 0
560 495 559 0
-561 496 0
-561 560 0
561 -496 -560 0
-562 496 0
-562 -561 0
562 -496 561 0
-563 -497 0
-563 -562 0
563 497 562 0
-564 498 0
-564 563 0
564 -498 -563 0
-565 498 0
-565 -564 0
565 -498 564 0
-566 -499 0
-566 -565 0
566 499 565 0
-567 500 0
-567 566 0
567 -500 -566 0
-568 500 0
-568 -567 0
568 -500 567 0
-569 -501 0
-569 -568 0
569 501 568 0
-570 502 0
-570 569 0
570 -502 -569 0
-571 502 0
-571 -570 0
571 -502 570 0
-572 -503 0
-572 -571 0
572 503 571 0
-573 504 0
-573 572 0
573 -504 -572 0
-574 504 0
-574 -573 0
574 -504 573 0
-575 -505 0
-575 -574 0
575 505 574 0
-576 506 0
-576 575 0
576 -506 -575 0
-577 506 0
-577 -576 0
577 -506 576 0
-578 -507 0
-578 -577 0
578 507 577 0
-579 508 0
-579 578 0
579 -508 -578 0
-580 508 0
-580 -579 0
580 -508 579 0
-581 -509 0
-581 -580 0
581 509 580 0
-582 510 0
-582 581 0
582 -510 -581 0
-583 510 0
-583 -582 0
583 -510 582 0
-584 -511 0
-584 -583 0
584 511 583 0
-585 512 0
-585 584 0
585 -512 -584 0
-586 512 0
-586 -585 0
586 -512 585 0
-587 -513 0
-587 -586 0
587 513 586 0
-588 514 0
-588 587 0
588 -514 -587 0
-589 514 0
-589 -588 0
589 -514 588 0
-590 -515 0
-590 -589 0
590 515 589 0
-591 516 0
-591 590 0
591 -516 -590 0
-592 516 0
-592 -591 0
592 -516 591 0
-593 -517 0
-593 -592 0
593 517 592 0
-594 518 0
-594 593 0
594 -518 -593 0
-595 518 0
-595 -594 0
595 -518 594 0
-596 -519 0
-596 -595 0
596 519 595 0
-597 520 0
-597 596 0
597 -520 -596 0
-598 520 0
-598 -597 0
598 -520 597 0
-599 -521 0
-599 -598 0
599 521 598 0
-600 522 0
-600 599 0
600 -522 -599 0
-601 522 0
-601 -600 0
601 -522 600 0
-602 -523 0
-602 -601 0
602 523 601 0
-603 524 0
-603 602 0
603 -524 -602 0
-604 524 0
-604 -603 0
604 -524 603 0
-605 -525 0
-605 -604 0
605 525 604 0
-606 526 0
-606 605 0
606 -526 -605 0
-607 526 0
-607 -606 0
607 -526 606 0
-608 -527 0
-608 -607 0
608 527 607 0
-609 528 0
-609 608 0
609 -528 -608 0
-610 528 0
-610 -609 0
610 -528 609 0
-611 -529 0
-611 -610 0
611 529 610 0
-612 530 0
-612 611 0
612 -530 -611 0
-613 530 0
-613 -612 0
613 -530 612 0
-614 -531 0
-614 -613 0
614 531 613 0
-615 532 0
-615 614 0
615 -532 -614 0
-616 532 0
-616 -615 0
616 -532 615 0
-617 -533 0
-617 -616 0
617 533 616 0
-618 534 0
-618 617 0
618 -534 -617 0
-619 534 0
-619 -618 0
619 -534 618 0
-620 -535 0
-620 -619 0
620 535 619 0
-621 536 0
-621 620 0
621 -536 -620 0
-622 536 0
-622 -621 0
622 -536 621 0
-623 -537 0
-623 -622 0
623 537 622 0
-624 538 0
-624 623 0
624 -538 -623 0
-625 538 0
-625 -624 0
625 -538 624 0
-626 -539 0
-626 -625 0
626 539 625 0
-627 540 0
-627 626 0
627 -540 -626 0
-628 540 0
-628 -627 0
628 -540 627 0
-629 -541 0
-629 -628 0
629 541 628 0
-630 542 0
-630 629 0
630 -542 -629 0
-631 542 0
-631 -630 0
631 -542 630 0
-632 -543 0
-632 -631 0
632 543 631 0
-633 544 0
-633 632 0
633 -544 -632 0
-634 544 0
-634 -633 0
634 -544 633 0
-635 -545 0
-635 -634 0
635 545 634 0
-636 546 0
-636 635 0
636 -546 -635 0
-637 546 0
-637 -636 0
637 -546 636 0
-638 -547 0
-638 -637 0
638 547 637 0
-639 548 0
-639 638 0
639 -548 -638 0
-640 548 0
-640 -639 0
640 -548 639 0
-641 -549 0
-641 -640 0
641 549 640 0
-642 550 0
-642 641 0
642 -550 -641 0
-643 550 0
-643 -642 0
643 -550 642 0
-644 -551 0
-644 -643 0
644 551 643 0
-645 552 0
-645 644 0
645 -552 -644 0
-646 552 0
-646 -645 0
646 -552 645 0
-647 -553 0
-647 -646 0
647 553 646 0
-648 490 0
-648 -647 0
648 -490 647 0
-649 489 0
-649 -648 0
649 -489 648 0
650 -6318 0
-650 6318 0
-651 649 0
-651 650 0
651 -649 -650 0
715 -6382 0
-715 6382 0
714 -6381 0
-714 6381 0
713 -6380 0
-713 6380 0
712 -6379 0
-712 6379 0
711 -6378 0
-711 6378 0
710 -6377 0
-710 6377 0
709 -6376 0
-709 6376 0
708 -6375 0
-708 6375 0
707 -6374 0
-707 6374 0
706 -6373 0
-706 6373 0
705 -6372 0
-705 6372 0
704 -6371 0
-704 6371 0
703 -6370 0
-703 6370 0
702 -6369 0
-702 6369 0
701 -6368 0
-701 6368 0
700 -6367 0
-700 6367 0
699 -6366 0
-699 6366 0
698 -6365 0
-698 6365 0
697 -6364 0
-697 6364 0
696 -6363 0
-696 6363 0
695 -6362 0
-695 6362 0
694 -6361 0
-694 6361 0
693 -6360 0
-693 6360 0
692 -6359 0
-692 6359 0
691 -6358 0
-691 6358 0
690 -6357 0
-690 6357 0
689 -6356 0
-689 6356 0
688 -6355 0
-688 6355 0
687 -6354 0
-687 6354 0
686 -6353 0
-686 6353 0
685 -6352 0
-685 6352 0
684 -6351 0
-684 6351 0
683 -6350 0
-683 6350 0
682 -6349 0
-682 6349 0
681 -6348 0
-681 6348 0
680 -6347 0
-680 6347 0
679 -6346 0
-679 6346 0
678 -6345 0
-678 6345 0
677 -6344 0
-677 6344 0
676 -6343 0
-676 6343 0
675 -6342 0
-675 6342 0
674 -6341 0
-674 6341 0
673 -6340 0
-673 6340 0
672 -6339 0
-672 6339 0
671 -6338 0
-671 6338 0
670 -6337 0
-670 6337 0
669 -6336 0
-669 6336 0
668 -6335 0
-668 6335 0
667 -6334 0
-667 6334 0
666 -6333 0
-666 6333 0
665 -6332 0
-665 6332 0
664 -6331 0
-664 6331 0
663 -6330 0
-663 6330 0
662 -6329 0
-662 6329 0
661 -6328 0
-661 6328 0
660 -6327 0
-660 6327 0
659 -6326 0
-659 6326 0
658 -6325 0
-658 6325 0
657 -6324 0
-657 6324 0
656 -6323 0
-656 6323 0
655 -6322 0
-655 6322 0
654 -6321 0
-654 6321 0
653 -6320 0
-653 6320 0
-716 -652 0
-716 -653 0
716 652 653 0
-717 654 0
-717 716 0
717 -654 -716 0
-718 654 0
-718 -717 0
718 -654 717 0
-719 -655 0
-719 -718 0
719 655 718 0
-720 656 0
-720 719 0
720 -656 -719 0
-721 656 0
-721 -720 0
721 -656 720 0
-722 -657 0
-722 -721 0
722 657 721 0
-723 658 0
-723 722 0
723 -658 -722 0
-724 658 0
-724 -723 0
724 -658 723 0
-725 -659 0
-725 -724 0
725 659 724 0
-726 660 0
-726 725 0
726 -660 -725 0
-727 660 0
-727 -726 0
727 -660 726 0
-728 -661 0
-728 -727 0
728 661 727 0
-729 662 0
-729 728 0
729 -662 -728 0
-730 662 0
-730 -729 0
730 -662 729 0
-731 -663 0
-731 -730 0
731 663 730 0
-732 664 0
-732 731 0
732 -664 -731 0
-733 664 0
-733 -732 0
733 -664 732 0
-734 -665 0
-734 -733 0
734 665 733 0
-735 666 0
-735 734 0
735 -666 -734 0
-736 666 0
-736 -735 0
736 -666 735 0
-737 -667 0
-737 -736 0
737 667 736 0
-738 668 0
-738 737 0
738 -668 -737 0
-739 668 0
-739 -738 0
739 -668 738 0
-740 -669 0
-740 -739 0
740 669 739 0
-741 670 0
-741 740 0
741 -670 -740 0
-742 670 0
-742 -741 0
742 -670 741 0
-743 -671 0
-743 -742 0
743 671 742 0
-744 672 0
-744 743 0
744 -672 -743 0
-745 672 0
-745 -744 0
745 -672 744 0
-746 -673 0
-746 -745 0
746 673 745 0
-747 674 0
-747 746 0
747 -674 -746 0
-748 674 0
-748 -747 0
748 -674 747 0
-749 -675 0
-749 -748 0
749 675 748 0
-750 676 0
-750 749 0
750 -676 -749 0
-751 676 0
-751 -750 0
751 -676 750 0
-752 -677 0
-752 -751 0
752 677 751 0
-753 678 0
-753 752 0
753 -678 -752 0
-754 678 0
-754 -753 0
754 -678 753 0
-755 -679 0
-755 -754 0
755 679 754 0
-756 680 0
-756 755 0
756 -680 -755 0
-757 680 0
-757 -756 0
757 -680 756 0
-758 -681 0
-758 -757 0
758 681 757 0
-759 682 0
-759 758 0
759 -682 -758 0
-760 682 0
-760 -759 0
760 -682 759 0
-761 -683 0
-761 -760 0
761 683 760 0
-762 684 0
-762 761 0
762 -684 -761 0
-763 684 0
-763 -762 0
763 -684 762 0
-764 -685 0
-764 -763 0
764 685 763 0
-765 686 0
-765 764 0
765 -686 -764 0
-766 686 0
-766 -765 0
766 -686 765 0
-767 -687 0
-767 -766 0
767 687 766 0
-768 688 0
-768 767 0
768 -688 -767 0
-769 688 0
-769 -768 0
769 -688 768 0
-770 -689 0
-770 -769 0
770 689 769 0
-771 690 0
-771 770 0
771 -690 -770 0
-772 690 0
-772 -771 0
772 -690 771 0
-773 -691 0
-773 -772 0
773 691 772 0
-774 692 0
-774 773 0
774 -692 -773 0
-775 692 0
-775 -774 0
775 -692 774 0
-776 -693 0
-776 -775 0
776 693 775 0
-777 694 0
-777 776 0
777 -694 -776 0
-778 694 0
-778 -777 0
778 -694 777 0
-779 -695 0
-779 -778 0
779 695 778 0
-780 696 0
-780 779 0
780 -696 -779 0
-781 696 0
-781 -780 0
781 -696 780 0
-782 -697 0
-782 -781 0
782 697 781 0
-783 698 0
-783 782 0
783 -698 -782 0
-784 698 0
-784 -783 0
784 -698 783 0
-785 -699 0
-785 -784 0
785 699 784 0
-786 700 0
-786 785 0
786 -700 -785 0
-787 700 0
-787 -786 0
787 -700 786 0
-788 -701 0
-788 -787 0
788 701 787 0
-789 702 0
-789 788 0
789 -702 -788 0
-790 702 0
-790 -789 0
790 -702 789 0
-791 -703 0
-791 -790 0
791 703 790 0
-792 704 0
-792 791 0
792 -704 -791 0
-793 704 0
-793 -792 0
793 -704 792 0
-794 -705 0
-794 -793 0
794 705 793 0
-795 706 0
-795 794 0
795 -706 -794 0
-796 706 0
-796 -795 0
796 -706 795 0
-797 -707 0
-797 -796 0
797 707 796 0
-798 708 0
-798 797 0
798 -708 -797 0
-799 708 0
-799 -798 0
799 -708 798 0
-800 -709 0
-800 -799 0
800 709 799 0
-801 710 0
-801 800 0
801 -710 -800 0
-802 710 0
-802 -801 0
802 -710 801 0
-803 -711 0
-803 -802 0
803 711 802 0
-804 712 0
-804 803 0
804 -712 -803 0
-805 712 0
-805 -804 0
805 -712 804 0
-806 -713 0
-806 -805 0
806 713 805 0
-807 714 0
-807 806 0
807 -714 -806 0
-808 714 0
-808 -807 0
808 -714 807 0
-809 -715 0
-809 -808 0
809 715 808 0
-810 652 0
-810 -809 0
810 -652 809 0
-811 651 0
-811 -810 0
811 -651 810 0
812 -6383 0
-812 6383 0
-813 811 0
-813 812 0
813 -811 -812 0
877 -6447 0
-877 6447 0
876 -6446 0
-876 6446 0
875 -6445 0
-875 6445 0
874 -6444 0
-874 6444 0
873 -6443 0
-873 6443 0
872 -6442 0
-872 6442 0
871 -6441 0
-871 6441 0
870 -6440 0
-870 6440 0
869 -6439 0
-869 6439 0
868 -6438 0
-868 6438 0
867 -6437 0
-867 6437 0
866 -6436 0
-866 6436 0
865 -6435 0
-865 6435 0
864 -6434 0
-864 6434 0
863 -6433 0
-863 6433 0
862 -6432 0
-862 6432 0
861 -6431 0
-861 6431 0
860 -6430 0
-860 6430 0
859 -6429 0
-859 6429 0
858 -6428 0
-858 6428 0
857 -6427 0
-857 6427 0
856 -6426 0
-856 6426 0
855 -6425 0
-855 6425 0
854 -6424 0
-854 6424 0
853 -6423 0
-853 6423 0
852 -6422 0
-852 6422 0
851 -6421 0
-851 6421 0
850 -6420 0
-850 6420 0
849 -6419 0
-849 6419 0
848 -6418 0
-848 6418 0
847 -6417 0
-847 6417 0
846 -6416 0
-846 6416 0
845 -6415 0
-845 6415 0
844 -6414 0
-844 6414 0
843 -6413 0
-843 6413 0
842 -6412 0
-842 6412 0
841 -6411 0
-841 6411 0
840 -6410 0
-840 6410 0
839 -6409 0
-839 6409 0
838 -6408 0
-838 6408 0
837 -6407 0
-837 6407 0
836 -6406 0
-836 6406 0
835 -6405 0
-835 6405 0
834 -6404 0
-834 6404 0
833 -6403 0
-833 6403 0
832 -6402 0
-832 6402 0
831 -6401 0
-831 6401 0
830 -6400 0
-830 6400 0
829 -6399 0
-829 6399 0
828 -6398 0
-828 6398 0
827 -6397 0
-827 6397 0
826 -6396 0
-826 6396 0
825 -6395 0
-825 6395 0
824 -6394 0
-824 6394 0
823 -6393 0
-823 6393 0
822 -6392 0
-822 6392 0
821 -6391 0
-821 6391 0
820 -6390 0
-820 6390 0
819 -6389 0
-819 6389 0
818 -6388 0
-818 6388 0
817 -6387 0
-817 6387 0
816 -6386 0
-816 6386 0
815 -6385 0
-815 6385 0
-878 -814 0
-878 -815 0
878 814 815 0
-879 816 0
-879 878 0
879 -816 -878 0
-880 816 0
-880 -879 0
880 -816 879 0
-881 -817 0
-881 -880 0
881 817 880 0
-882 818 0
-882 881 0
882 -818 -881 0
-883 818 0
-883 -882 0
883 -818 882 0
-884 -819 0
-884 -883 0
884 819 883 0
-885 820 0
-885 884 0
885 -820 -884 0
-886 820 0
-886 -885 0
886 -820 885 0
-887 -821 0
-887 -886 0
887 821 886 0
-888 822 0
-888 887 0
888 -822 -887 0
-889 822 0
-889 -888 0
889 -822 888 0
-890 -823 0
-890 -889 0
890 823 889 0
-891 824 0
-891 890 0
891 -824 -890 0
-892 824 0
-892 -891 0
892 -824 891 0
-893 -825 0
-893 -892 0
893 825 892 0
-894 826 0
-894 893 0
894 -826 -893 0
-895 826 0
-895 -894 0
895 -826 894 0
-896 -827 0
-896 -895 0
896 827 895 0
-897 828 0
-897 896 0
897 -828 -896 0
-898 828 0
-898 -897 0
898 -828 897 0
-899 -829 0
-899 -898 0
899 829 898 0
-900 830 0
-900 899 0
900 -830 -899 0
-901 830 0
-901 -900 0
901 -830 900 0
-902 -831 0
-902 -901 0
902 831 901 0
-903 832 0
-903 902 0
903 -832 -902 0
-904 832 0
-904 -903 0
904 -832 903 0
-905 -833 0
-905 -904 0
905 833 904 0
-906 834 0
-906 905 0
906 -834 -905 0
-907 834 0
-907 -906 0
907 -834 906 0
-908 -835 0
-908 -907 0
908 835 907 0
-909 836 0
-909 908 0
909 -836 -908 0
-910 836 0
-910 -909 0
910 -836 909 0
-911 -837 0
-911 -910 0
911 837 910 0
-912 838 0
-912 911 0
912 -838 -911 0
-913 838 0
-913 -912 0
913 -838 912 0
-914 -839 0
-914 -913 0
914 839 913 0
-915 840 0
-915 914 0
915 -840 -914 0
-916 840 0
-916 -915 0
916 -840 915 0
-917 -841 0
-917 -916 0
917 841 916 0
-918 842 0
-918 917 0
918 -842 -917 0
-919 842 0
-919 -918 0
919 -842 918 0
-920 -843 0
-920 -919 0
920 843 919 0
-921 844 0
-921 920 0
921 -844 -920 0
-922 844 0
-922 -921 0
922 -844 921 0
-923 -845 0
-923 -922 0
923 845 922 0
-924 846 0
-924 923 0
924 -846 -923 0
-925 846 0
-925 -924 0
925 -846 924 0
-926 -847 0
-926 -925 0
926 847 925 0
-927 848 0
-927 926 0
927 -848 -926 0
-928 848 0
-928 -927 0
928 -848 927 0
-929 -849 0
-929 -928 0
929 849 928 0
-930 850 0
-930 929 0
930 -850 -929 0
-931 850 0
-931 -930 0
931 -850 930 0
-932 -851 0
-932 -931 0
932 851 931 0
-933 852 0
-933 932 0
933 -852 -932 0
-934 852 0
-934 -933 0
934 -852 933 0
-935 -853 0
-935 -934 0
935 853 934 0
-936 854 0
-936 935 0
936 -854 -935 0
-937 854 0
-937 -936 0
937 -854 936 0
-938 -855 0
-938 -937 0
938 855 937 0
-939 856 0
-939 938 0
939 -856 -938 0
-940 856 0
-940 -939 0
940 -856 939 0
-941 -857 0
-941 -940 0
941 857 940 0
-942 858 0
-942 941 0
942 -858 -941 0
-943 858 0
-943 -942 0
943 -858 942 0
-944 -859 0
-944 -943 0
944 859 943 0
-945 860 0
-945 944 0
945 -860 -944 0
-946 860 0
-946 -945 0
946 -860 945 0
-947 -861 0
-947 -946 0
947 861 946 0
-948 862 0
-948 947 0
948 -862 -947 0
-949 862 0
-949 -948 0
949 -862 948 0
-950 -863 0
-950 -949 0
950 863 949 0
-951 864 0
-951 950 0
951 -864 -950 0
-952 864 0
-952 -951 0
952 -864 951 0
-953 -865 0
-953 -952 0
953 865 952 0
-954 866 0
-954 953 0
954 -866 -953 0
-955 866 0
-955 -954 0
955 -866 954 0
-956 -867 0
-956 -955 0
956 867 955 0
-957 868 0
-957 956 0
957 -868 -956 0
-958 868 0
-958 -957 0
958 -868 957 0
-959 -869 0
-959 -958 0
959 869 958 0
-960 870 0
-960 959 0
960 -870 -959 0
-961 870 0
-961 -960 0
961 -870 960 0
-962 -871 0
-962 -961 0
962 871 961 0
-963 872 0
-963 962 0
963 -872 -962 0
-964 872 0
-964 -963 0
964 -872 963 0
-965 -873 0
-965 -964 0
965 873 964 0
-966 874 0
-966 965 0
966 -874 -965 0
-967 874 0
-967 -966 0
967 -874 966 0
-968 -875 0
-968 -967 0
968 875 967 0
-969 876 0
-969 968 0
969 -876 -968 0
-970 876 0
-970 -969 0
970 -876 969 0
-971 -877 0
-971 -970 0
971 877 970 0
-972 814 0
-972 -971 0
972 -814 971 0
-973 813 0
-973 -972 0
973 -813 972 0
974 -6448 0
-974 6448 0
-975 973 0
-975 974 0
975 -973 -974 0
1039 -6512 0
-1039 6512 0
1038 -6511 0
-1038 6511 0
1037 -6510 0
-1037 6510 0
1036 -6509 0
-1036 6509 0
1035 -6508 0
-1035 6508 0
1034 -6507 0
-1034 6507 0
1033 -6506 0
-1033 6506 0
1032 -6505 0
-1032 6505 0
1031 -6504 0
-1031 6504 0
1030 -6503 0
-1030 6503 0
1029 -6502 0
-1029 6502 0
1028 -6501 0
-1028 6501 0
1027 -6500 0
-1027 6500 0
1026 -6499 0
-1026 6499 0
1025 -6498 0
-1025 6498 0
1024 -6497 0
-1024 6497 0
1023 -6496 0
-1023 6496 0
1022 -6495 0
-1022 6495 0
1021 -6494 0
-1021 6494 0
1020 -6493 0
-1020 6493 0
1019 -6492 0
-1019 6492 0
1018 -6491 0
-1018 6491 0
1017 -6490 0
-1017 6490 0
1016 -6489 0
-1016 6489 0
1015 -6488 0
-1015 6488 0
1014 -6487 0
-1014 6487 0
1013 -6486 0
-1013 6486 0
1012 -6485 0
-1012 6485 0
1011 -6484 0
-1011 6484 0
1010 -6483 0
-1010 6483 0
1009 -6482 0
-1009 6482 0
1008 -6481 0
-1008 6481 0
1007 -6480 0
-1007 6480 0
1006 -6479 0
-1006 6479 0
1005 -6478 0
-1005 6478 0
1004 -6477 0
-1004 6477 0
1003 -6476 0
-1003 6476 0
1002 -6475 0
-1002 6475 0
1001 -6474 0
-1001 6474 0
1000 -6473 0
-1000 6473 0
999 -6472 0
-999 6472 0
998 -6471 0
-998 6471 0
997 -6470 0
-997 6470 0
996 -6469 0
-996 6469 0
995 -6468 0
-995 6468 0
994 -6467 0
-994 6467 0
993 -6466 0
-993 6466 0
992 -6465 0
-992 6465 0
991 -6464 0
-991 6464 0
990 -6463 0
-990 6463 0
989 -6462 0
-989 6462 0
988 -6461 0
-988 6461 0
987 -6460 0
-987 6460 0
986 -6459 0
-986 6459 0
985 -6458 0
-985 6458 0
984 -6457 0
-984 6457 0
983 -6456 0
-983 6456 0
982 -6455 0
-982 6455 0
981 -6454 0
-981 6454 0
980 -6453 0
-980 6453 0
979 -6452 0
-979 6452 0
978 -6451 0
-978 6451 0
977 -6450 0
-977 6450 0
-1040 -976 0
-1040 -977 0
1040 976 977 0
-1041 978 0
-1041 1040 0
1041 -978 -1040 0
-1042 978 0
-1042 -1041 0
1042 -978 1041 0
-1043 -979 0
-1043 -1042 0
1043 979 1042 0
-1044 980 0
-1044 1043 0
1044 -980 -1043 0
-1045 980 0
-1045 -1044 0
1045 -980 1044 0
-1046 -981 0
-1046 -1045 0
1046 981 1045 0
-1047 982 0
-1047 1046 0
1047 -982 -1046 0
-1048 982 0
-1048 -1047 0
1048 -982 1047 0
-1049 -983 0
-1049 -1048 0
1049 983 1048 0
-1050 984 0
-1050 1049 0
1050 -984 -1049 0
-1051 984 0
-1051 -1050 0
1051 -984 1050 0
-1052 -985 0
-1052 -1051 0
1052 985 1051 0
-1053 986 0
-1053 1052 0
1053 -986 -1052 0
-1054 986 0
-1054 -1053 0
1054 -986 1053 0
-1055 -987 0
-1055 -1054 0
1055 987 1054 0
-1056 988 0
-1056 1055 0
1056 -988 -1055 0
-1057 988 0
-1057 -1056 0
1057 -988 1056 0
-1058 -989 0
-1058 -1057 0
1058 989 1057 0
-1059 990 0
-1059 1058 0
1059 -990 -1058 0
-1060 990 0
-1060 -1059 0
1060 -990 1059 0
-1061 -991 0
-1061 -1060 0
1061 991 1060 0
-1062 992 0
-1062 1061 0
1062 -992 -1061 0
-1063 992 0
-1063 -1062 0
1063 -992 1062 0
-1064 -993 0
-1064 -1063 0
1064 993 1063 0
-1065 994 0
-1065 1064 0
1065 -994 -1064 0
-1066 994 0
-1066 -1065 0
1066 -994 1065 0
-1067 -995 0
-1067 -1066 0
1067 995 1066 0
-1068 996 0
-1068 1067 0
1068 -996 -1067 0
-1069 996 0
-1069 -1068 0
1069 -996 1068 0
-1070 -997 0
-1070 -1069 0
1070 997 1069 0
-1071 998 0
-1071 1070 0
1071 -998 -1070 0
-1072 998 0
-1072 -1071 0
1072 -998 1071 0
-1073 -999 0
-1073 -1072 0
1073 999 1072 0
-1074 1000 0
-1074 1073 0
1074 -1000 -1073 0
-1075 1000 0
-1075 -1074 0
1075 -1000 1074 0
-1076 -1001 0
-1076 -1075 0
1076 1001 1075 0
-1077 1002 0
-1077 1076 0
1077 -1002 -1076 0
-1078 1002 0
-1078 -1077 0
1078 -1002 1077 0
-1079 -1003 0
-1079 -1078 0
1079 1003 1078 0
-1080 1004 0
-1080 1079 0
1080 -1004 -1079 0
-1081 1004 0
-1081 -1080 0
1081 -1004 1080 0
-1082 -1005 0
-1082 -1081 0
1082 1005 1081 0
-1083 1006 0
-1083 1082 0
1083 -1006 -1082 0
-1084 1006 0
-1084 -1083 0
1084 -1006 1083 0
-1085 -1007 0
-1085 -1084 0
1085 1007 1084 0
-1086 1008 0
-1086 1085 0
1086 -1008 -1085 0
-1087 1008 0
-1087 -1086 0
1087 -1008 1086 0
-1088 -1009 0
-1088 -1087 0
1088 1009 1087 0
-1089 1010 0
-1089 1088 0
1089 -1010 -1088 0
-1090 1010 0
-1090 -1089 0
1090 -1010 1089 0
-1091 -1011 0
-1091 -1090 0
1091 1011 1090 0
-1092 1012 0
-1092 1091 0
1092 -1012 -1091 0
-1093 1012 0
-1093 -1092 0
1093 -1012 1092 0
-1094 -1013 0
-1094 -1093 0
1094 1013 1093 0
-1095 1014 0
-1095 1094 0
1095 -1014 -1094 0
-1096 1014 0
-1096 -1095 0
1096 -1014 1095 0
-1097 -1015 0
-1097 -1096 0
1097 1015 1096 0
-1098 1016 0
-1098 1097 0
1098 -1016 -1097 0
-1099 1016 0
-1099 -1098 0
1099 -1016 1098 0
-1100 -1017 0
-1100 -1099 0
1100 1017 1099 0
-1101 1018 0
-1101 1100 0
1101 -1018 -1100 0
-1102 1018 0
-1102 -1101 0
1102 -1018 1101 0
-1103 -1019 0
-1103 -1102 0
1103 1019 1102 0
-1104 1020 0
-1104 1103 0
1104 -1020 -1103 0
-1105 1020 0
-1105 -1104 0
1105 -1020 1104 0
-1106 -1021 0
-1106 -1105 0
1106 1021 1105 0
-1107 1022 0
-1107 1106 0
1107 -1022 -1106 0
-1108 1022 0
-1108 -1107 0
1108 -1022 1107 0
-1109 -1023 0
-1109 -1108 0
1109 1023 1108 0
-1110 1024 0
-1110 1109 0
1110 -1024 -1109 0
-1111 1024 0
-1111 -1110 0
1111 -1024 1110 0
-1112 -1025 0
-1112 -1111 0
1112 1025 1111 0
-1113 1026 0
-1113 1112 0
1113 -1026 -1112 0
-1114 1026 0
-1114 -1113 0
1114 -1026 1113 0
-1115 -1027 0
-1115 -1114 0
1115 1027 1114 0
-1116 1028 0
-1116 1115 0
1116 -1028 -1115 0
-1117 1028 0
-1117 -1116 0
1117 -1028 1116 0
-1118 -1029 0
-1118 -1117 0
1118 1029 1117 0
-1119 1030 0
-1119 1118 0
1119 -1030 -1118 0
-1120 1030 0
-1120 -1119 0
1120 -1030 1119 0
-1121 -1031 0
-1121 -1120 0
1121 1031 1120 0
-1122 1032 0
-1122 1121 0
1122 -1032 -1121 0
-1123 1032 0
-1123 -1122 0
1123 -1032 1122 0
-1124 -1033 0
-1124 -1123 0
1124 1033 1123 0
-1125 1034 0
-1125 1124 0
1125 -1034 -1124 0
-1126 1034 0
-1126 -1125 0
1126 -1034 1125 0
-1127 -1035 0
-1127 -1126 0
1127 1035 1126 0
-1128 1036 0
-1128 1127 0
1128 -1036 -1127 0
-1129 1036 0
-1129 -1128 0
1129 -1036 1128 0
-1130 -1037 0
-1130 -1129 0
1130 1037 1129 0
-1131 1038 0
-1131 1130 0
1131 -1038 -1130 0
-1132 1038 0
-1132 -1131 0
1132 -1038 1131 0
-1133 -1039 0
-1133 -1132 0
1133 1039 1132 0
-1134 976 0
-1134 -1133 0
1134 -976 1133 0
-1135 975 0
-1135 -1134 0
1135 -975 1134 0
1136 -6513 0
-1136 6513 0
-1137 1135 0
-1137 1136 0
1137 -1135 -1136 0
1201 -6577 0
-1201 6577 0
1200 -6576 0
-1200 6576 0
1199 -6575 0
-1199 6575 0
1198 -6574 0
-1198 6574 0
1197 -6573 0
-1197 6573 0
1196 -6572 0
-1196 6572 0
1195 -6571 0
-1195 6571 0
1194 -6570 0
-1194 6570 0
1193 -6569 0
-1193 6569 0
1192 -6568 0
-1192 6568 0
1191 -6567 0
-1191 6567 0
1190 -6566 0
-1190 6566 0
1189 -6565 0
-1189 6565 0
1188 -6564 0
-1188 6564 0
1187 -6563 0
-1187 6563 0
1186 -6562 0
-1186 6562 0
1185 -6561 0
-1185 6561 0
1184 -6560 0
-1184 6560 0
1183 -6559 0
-1183 6559 0
1182 -6558 0
-1182 6558 0
1181 -6557 0
-1181 6557 0
1180 -6556 0
-1180 6556 0
1179 -6555 0
-1179 6555 0
1178 -6554 0
-1178 6554 0
1177 -6553 0
-1177 6553 0
1176 -6552 0
-1176 6552 0
1175 -6551 0
-1175 6551 0
1174 -6550 0
-1174 6550 0
1173 -6549 0
-1173 6549 0
1172 -6548 0
-1172 6548 0
1171 -6547 0
-1171 6547 0
1170 -6546 0
-1170 6546 0
1169 -6545 0
-1169 6545 0
1168 -6544 0
-1168 6544 0
1167 -6543 0
-1167 6543 0
1166 -6542 0
-1166 6542 0
1165 -6541 0
-1165 6541 0
1164 -6540 0
-1164 6540 0
1163 -6539 0
-1163 6539 0
1162 -6538 0
-1162 6538 0
1161 -6537 0
-1161 6537 0
1160 -6536 0
-1160 6536 0
1159 -6535 0
-1159 6535 0
1158 -6534 0
-1158 6534 0
1157 -6533 0
-1157 6533 0
1156 -6532 0
-1156 6532 0
1155 -6531 0
-1155 6531 0
1154 -6530 0
-1154 6530 0
1153 -6529 0
-1153 6529 0
1152 -6528 0
-1152 6528 0
1151 -6527 0
-1151 6527 0
1150 -6526 0
-1150 6526 0
1149 -6525 0
-1149 6525 0
1148 -6524 0
-1148 6524 0
1147 -6523 0
-1147 6523 0
1146 -6522 0
-1146 6522 0
1145 -6521 0
-1145 6521 0
1144 -6520 0
-1144 6520 0
1143 -6519 0
-1143 6519 0
1142 -6518 0
-1142 6518 0
1141 -6517 0
-1141 6517 0
1140 -6516 0
-1140 6516 0
1139 -6515 0
-1139 6515 0
-1202 -1138 0
-1202 -1139 0
1202 1138 1139 0
-1203 1140 0
-1203 1202 0
1203 -1140 -1202 0
-1204 1140 0
-1204 -1203 0
1204 -1140 1203 0
-1205 -1141 0
-1205 -1204 0
1205 1141 1204 0
-1206 1142 0
-1206 1205 0
1206 -1142 -1205 0
-1207 1142 0
-1207 -1206 0
1207 -1142 1206 0
-1208 -1143 0
-1208 -1207 0
1208 1143 1207 0
-1209 1144 0
-1209 1208 0
1209 -1144 -1208 0
-1210 1144 0
-1210 -1209 0
1210 -1144 1209 0
-1211 -1145 0
-1211 -1210 0
1211 1145 1210 0
-1212 1146 0
-1212 1211 0
1212 -1146 -1211 0
-1213 1146 0
-1213 -1212 0
1213 -1146 1212 0
-1214 -1147 0
-1214 -1213 0
1214 1147 1213 0
-1215 1148 0
-1215 1214 0
1215 -1148 -1214 0
-1216 1148 0
-1216 -1215 0
1216 -1148 1215 0
-1217 -1149 0
-1217 -1216 0
1217 1149 1216 0
-1218 1150 0
-1218 1217 0
1218 -1150 -1217 0
-1219 1150 0
-1219 -1218 0
1219 -1150 1218 0
-1220 -1151 0
-1220 -1219 0
1220 1151 1219 0
-1221 1152 0
-1221 1220 0
1221 -1152 -1220 0
-1222 1152 0
-1222 -1221 0
1222 -1152 1221 0
-1223 -1153 0
-1223 -1222 0
1223 1153 1222 0
-1224 1154 0
-1224 1223 0
1224 -1154 -1223 0
-1225 1154 0
-1225 -1224 0
1225 -1154 1224 0
-1226 -1155 0
-1226 -1225 0
1226 1155 1225 0
-1227 1156 0
-1227 1226 0
1227 -1156 -1226 0
-1228 1156 0
-1228 -1227 0
1228 -1156 1227 0
-1229 -1157 0
-1229 -1228 0
1229 1157 1228 0
-1230 1158 0
-1230 1229 0
1230 -1158 -1229 0
-1231 1158 0
-1231 -1230 0
1231 -1158 1230 0
-1232 -1159 0
-1232 -1231 0
1232 1159 1231 0
-1233 1160 0
-1233 1232 0
1233 -1160 -1232 0
-1234 1160 0
-1234 -1233 0
1234 -1160 1233 0
-1235 -1161 0
-1235 -1234 0
1235 1161 1234 0
-1236 1162 0
-1236 1235 0
1236 -1162 -1235 0
-1237 1162 0
-1237 -1236 0
1237 -1162 1236 0
-1238 -1163 0
-1238 -1237 0
1238 1163 1237 0
-1239 1164 0
-1239 1238 0
1239 -1164 -1238 0
-1240 1164 0
-1240 -1239 0
1240 -1164 1239 0
-1241 -1165 0
-1241 -1240 0
1241 1165 1240 0
-1242 1166 0
-1242 1241 0
1242 -1166 -1241 0
-1243 1166 0
-1243 -1242 0
1243 -1166 1242 0
-1244 -1167 0
-1244 -1243 0
1244 1167 1243 0
-1245 1168 0
-1245 1244 0
1245 -1168 -1244 0
-1246 1168 0
-1246 -1245 0
1246 -1168 1245 0
-1247 -1169 0
-1247 -1246 0
1247 1169 1246 0
-1248 1170 0
-1248 1247 0
1248 -1170 -1247 0
-1249 1170 0
-1249 -1248 0
1249 -1170 1248 0
-1250 -1171 0
-1250 -1249 0
1250 1171 1249 0
-1251 1172 0
-1251 1250 0
1251 -1172 -1250 0
-1252 1172 0
-1252 -1251 0
1252 -1172 1251 0
-1253 -1173 0
-1253 -1252 0
1253 1173 1252 0
-1254 1174 0
-1254 1253 0
1254 -1174 -1253 0
-1255 1174 0
-1255 -1254 0
1255 -1174 1254 0
-1256 -1175 0
-1256 -1255 0
1256 1175 1255 0
-1257 1176 0
-1257 1256 0
1257 -1176 -1256 0
-1258 1176 0
-1258 -1257 0
1258 -1176 1257 0
-1259 -1177 0
-1259 -1258 0
1259 1177 1258 0
-1260 1178 0
-1260 1259 0
1260 -1178 -1259 0
-1261 1178 0
-1261 -1260 0
1261 -1178 1260 0
-1262 -1179 0
-1262 -1261 0
1262 1179 1261 0
-1263 1180 0
-1263 1262 0
1263 -1180 -1262 0
-1264 1180 0
-1264 -1263 0
1264 -1180 1263 0
-1265 -1181 0
-1265 -1264 0
1265 1181 1264 0
-1266 1182 0
-1266 1265 0
1266 -1182 -1265 0
-1267 1182 0
-1267 -1266 0
1267 -1182 1266 0
-1268 -1183 0
-1268 -1267 0
1268 1183 1267 0
-1269 1184 0
-1269 1268 0
1269 -1184 -1268 0
-1270 1184 0
-1270 -1269 0
1270 -1184 1269 0
-1271 -1185 0
-1271 -1270 0
1271 1185 1270 0
-1272 1186 0
-1272 1271 0
1272 -1186 -1271 0
-1273 1186 0
-1273 -1272 0
1273 -1186 1272 0
-1274 -1187 0
-1274 -1273 0
1274 1187 1273 0
-1275 1188 0
-1275 1274 0
1275 -1188 -1274 0
-1276 1188 0
-1276 -1275 0
1276 -1188 1275 0
-1277 -1189 0
-1277 -1276 0
1277 1189 1276 0
-1278 1190 0
-1278 1277 0
1278 -1190 -1277 0
-1279 1190 0
-1279 -1278 0
1279 -1190 1278 0
-1280 -1191 0
-1280 -1279 0
1280 1191 1279 0
-1281 1192 0
-1281 1280 0
1281 -1192 -1280 0
-1282 1192 0
-1282 -1281 0
1282 -1192 1281 0
-1283 -1193 0
-1283 -1282 0
1283 1193 1282 0
-1284 1194 0
-1284 1283 0
1284 -1194 -1283 0
-1285 1194 0
-1285 -1284 0
1285 -1194 1284 0
-1286 -1195 0
-1286 -1285 0
1286 1195 1285 0
-1287 1196 0
-1287 1286 0
1287 -1196 -1286 0
-1288 1196 0
-1288 -1287 0
1288 -1196 1287 0
-1289 -1197 0
-1289 -1288 0
1289 1197 1288 0
-1290 1198 0
-1290 1289 0
1290 -1198 -1289 0
-1291 1198 0
-1291 -1290 0
1291 -1198 1290 0
-1292 -1199 0
-1292 -1291 0
1292 1199 1291 0
-1293 1200 0
-1293 1292 0
1293 -1200 -1292 0
-1294 1200 0
-1294 -1293 0
1294 -1200 1293 0
-1295 -1201 0
-1295 -1294 0
1295 1201 1294 0
-1296 1138 0
-1296 -1295 0
1296 -1138 1295 0
-1297 1137 0
-1297 -1296 0
1297 -1137 1296 0
1298 -6578 0
-1298 6578 0
-1299 1297 0
-1299 1298 0
1299 -1297 -1298 0
1363 -6642 0
-1363 6642 0
1362 -6641 0
-1362 6641 0
1361 -6640 0
-1361 6640 0
1360 -6639 0
-1360 6639 0
1359 -6638 0
-1359 6638 0
1358 -6637 0
-1358 6637 0
1357 -6636 0
-1357 6636 0
1356 -6635 0
-1356 6635 0
1355 -6634 0
-1355 6634 0
1354 -6633 0
-1354 6633 0
1353 -6632 0
-1353 6632 0
1352 -6631 0
-1352 6631 0
1351 -6630 0
-1351 6630 0
1350 -6629 0
-1350 6629 0
1349 -6628 0
-1349 6628 0
1348 -6627 0
-1348 6627 0
1347 -6626 0
-1347 6626 0
1346 -6625 0
-1346 6625 0
1345 -6624 0
-1345 6624 0
1344 -6623 0
-1344 6623 0
1343 -6622 0
-1343 6622 0
1342 -6621 0
-1342 6621 0
1341 -6620 0
-1341 6620 0
1340 -6619 0
-1340 6619 0
1339 -6618 0
-1339 6618 0
1338 -6617 0
-1338 6617 0
1337 -6616 0
-1337 6616 0
1336 -6615 0
-1336 6615 0
1335 -6614 0
-1335 6614 0
1334 -6613 0
-1334 6613 0
1333 -6612 0
-1333 6612 0
1332 -6611 0
-1332 6611 0
1331 -6610 0
-1331 6610 0
1330 -6609 0
-1330 6609 0
1329 -6608 0
-1329 6608 0
1328 -6607 0
-1328 6607 0
1327 -6606 0
-1327 6606 0
1326 -6605 0
-1326 6605 0
1325 -6604 0
-1325 6604 0
1324 -6603 0
-1324 6603 0
1323 -6602 0
-1323 6602 0
1322 -6601 0
-1322 6601 0
1321 -6600 0
-1321 6600 0
1320 -6599 0
-1320 6599 0
1319 -6598 0
-1319 6598 0
1318 -6597 0
-1318 6597 0
1317 -6596 0
-1317 6596 0
1316 -6595 0
-1316 6595 0
1315 -6594 0
-1315 6594 0
1314 -6593 0
-1314 6593 0
1313 -6592 0
-1313 6592 0
1312 -6591 0
-1312 6591 0
1311 -6590 0
-1311 6590 0
1310 -6589 0
-1310 6589 0
1309 -6588 0
-1309 6588 0
1308 -6587 0
-1308 6587 0
1307 -6586 0
-1307 6586 0
1306 -6585 0
-1306 6585 0
1305 -6584 0
-1305 6584 0
1304 -6583 0
-1304 6583 0
1303 -6582 0
-1303 6582 0
1302 -6581 0
-1302 6581 0
1301 -6580 0
-1301 6580 0
-1364 -1300 0
-1364 -1301 0
1364 1300 1301 0
-1365 1302 0
-1365 1364 0
1365 -1302 -1364 0
-1366 1302 0
-1366 -1365 0
1366 -1302 1365 0
-1367 -1303 0
-1367 -1366 0
1367 1303 1366 0
-1368 1304 0
-1368 1367 0
1368 -1304 -1367 0
-1369 1304 0
-1369 -1368 0
1369 -1304 1368 0
-1370 -1305 0
-1370 -1369 0
1370 1305 1369 0
-1371 1306 0
-1371 1370 0
1371 -1306 -1370 0
-1372 1306 0
-1372 -1371 0
1372 -1306 1371 0
-1373 -1307 0
-1373 -1372 0
1373 1307 1372 0
-1374 1308 0
-1374 1373 0
1374 -1308 -1373 0
-1375 1308 0
-1375 -1374 0
1375 -1308 1374 0
-1376 -1309 0
-1376 -1375 0
1376 1309 1375 0
-1377 1310 0
-1377 1376 0
1377 -1310 -1376 0
-1378 1310 0
-1378 -1377 0
1378 -1310 1377 0
-1379 -1311 0
-1379 -1378 0
1379 1311 1378 0
-1380 1312 0
-1380 1379 0
1380 -1312 -1379 0
-1381 1312 0
-1381 -1380 0
1381 -1312 1380 0
-1382 -1313 0
-1382 -1381 0
1382 1313 1381 0
-1383 1314 0
-1383 1382 0
1383 -1314 -1382 0
-1384 1314 0
-1384 -1383 0
1384 -1314 1383 0
-1385 -1315 0
-1385 -1384 0
1385 1315 1384 0
-1386 1316 0
-1386 1385 0
1386 -1316 -1385 0
-1387 1316 0
-1387 -1386 0
1387 -1316 1386 0
-1388 -1317 0
-1388 -1387 0
1388 1317 1387 0
-1389 1318 0
-1389 1388 0
1389 -1318 -1388 0
-1390 1318 0
-1390 -1389 0
1390 -1318 1389 0
-1391 -1319 0
-1391 -1390 0
1391 1319 1390 0
-1392 1320 0
-1392 1391 0
1392 -1320 -1391 0
-1393 1320 0
-1393 -1392 0
1393 -1320 1392 0
-1394 -1321 0
-1394 -1393 0
1394 1321 1393 0
-1395 1322 0
-1395 1394 0
1395 -1322 -1394 0
-1396 1322 0
-1396 -1395 0
1396 -1322 1395 0
-1397 -1323 0
-1397 -1396 0
1397 1323 1396 0
-1398 1324 0
-1398 1397 0
1398 -1324 -1397 0
-1399 1324 0
-1399 -1398 0
1399 -1324 1398 0
-1400 -1325 0
-1400 -1399 0
1400 1325 1399 0
-1401 1326 0
-1401 1400 0
1401 -1326 -1400 0
-1402 1326 0
-1402 -1401 0
1402 -1326 1401 0
-1403 -1327 0
-1403 -1402 0
1403 1327 1402 0
-1404 1328 0
-1404 1403 0
1404 -1328 -1403 0
-1405 1328 0
-1405 -1404 0
1405 -1328 1404 0
-1406 -1329 0
-1406 -1405 0
1406 1329 1405 0
-1407 1330 0
-1407 1406 0
1407 -1330 -1406 0
-1408 1330 0
-1408 -1407 0
1408 -1330 1407 0
-1409 -1331 0
-1409 -1408 0
1409 1331 1408 0
-1410 1332 0
-1410 1409 0
1410 -1332 -1409 0
-1411 1332 0
-1411 -1410 0
1411 -1332 1410 0
-1412 -1333 0
-1412 -1411 0
1412 1333 1411 0
-1413 1334 0
-1413 1412 0
1413 -1334 -1412 0
-1414 1334 0
-1414 -1413 0
1414 -1334 1413 0
-1415 -1335 0
-1415 -1414 0
1415 1335 1414 0
-1416 1336 0
-1416 1415 0
1416 -1336 -1415 0
-1417 1336 0
-1417 -1416 0
1417 -1336 1416 0
-1418 -1337 0
-1418 -1417 0
1418 1337 1417 0
-1419 1338 0
-1419 1418 0
1419 -1338 -1418 0
-1420 1338 0
-1420 -1419 0
1420 -1338 1419 0
-1421 -1339 0
-1421 -1420 0
1421 1339 1420 0
-1422 1340 0
-1422 1421 0
1422 -1340 -1421 0
-1423 1340 0
-1423 -1422 0
1423 -1340 1422 0
-1424 -1341 0
-1424 -1423 0
1424 1341 1423 0
-1425 1342 0
-1425 1424 0
1425 -1342 -1424 0
-1426 1342 0
-1426 -1425 0
1426 -1342 1425 0
-1427 -1343 0
-1427 -1426 0
1427 1343 1426 0
-1428 1344 0
-1428 1427 0
1428 -1344 -1427 0
-1429 1344 0
-1429 -1428 0
1429 -1344 1428 0
-1430 -1345 0
-1430 -1429 0
1430 1345 1429 0
-1431 1346 0
-1431 1430 0
1431 -1346 -1430 0
-1432 1346 0
-1432 -1431 0
1432 -1346 1431 0
-1433 -1347 0
-1433 -1432 0
1433 1347 1432 0
-1434 1348 0
-1434 1433 0
1434 -1348 -1433 0
-1435 1348 0
-1435 -1434 0
1435 -1348 1434 0
-1436 -1349 0
-1436 -1435 0
1436 1349 1435 0
-1437 1350 0
-1437 1436 0
1437 -1350 -1436 0
-1438 1350 0
-1438 -1437 0
1438 -1350 1437 0
-1439 -1351 0
-1439 -1438 0
1439 1351 1438 0
-1440 1352 0
-1440 1439 0
1440 -1352 -1439 0
-1441 1352 0
-1441 -1440 0
1441 -1352 1440 0
-1442 -1353 0
-1442 -1441 0
1442 1353 1441 0
-1443 1354 0
-1443 1442 0
1443 -1354 -1442 0
-1444 1354 0
-1444 -1443 0
1444 -1354 1443 0
-1445 -1355 0
-1445 -1444 0
1445 1355 1444 0
-1446 1356 0
-1446 1445 0
1446 -1356 -1445 0
-1447 1356 0
-1447 -1446 0
1447 -1356 1446 0
-1448 -1357 0
-1448 -1447 0
1448 1357 1447 0
-1449 1358 0
-1449 1448 0
1449 -1358 -1448 0
-1450 1358 0
-1450 -1449 0
1450 -1358 1449 0
-1451 -1359 0
-1451 -1450 0
1451 1359 1450 0
-1452 1360 0
-1452 1451 0
1452 -1360 -1451 0
-1453 1360 0
-1453 -1452 0
1453 -1360 1452 0
-1454 -1361 0
-1454 -1453 0
1454 1361 1453 0
-1455 1362 0
-1455 1454 0
1455 -1362 -1454 0
-1456 1362 0
-1456 -1455 0
1456 -1362 1455 0
-1457 -1363 0
-1457 -1456 0
1457 1363 1456 0
-1458 1300 0
-1458 -1457 0
1458 -1300 1457 0
-1459 1299 0
-1459 -1458 0
1459 -1299 1458 0
1460 -6643 0
-1460 6643 0
-1461 1459 0
-1461 1460 0
1461 -1459 -1460 0
1525 -6707 0
-1525 6707 0
1524 -6706 0
-1524 6706 0
1523 -6705 0
-1523 6705 0
1522 -6704 0
-1522 6704 0
1521 -6703 0
-1521 6703 0
1520 -6702 0
-1520 6702 0
1519 -6701 0
-1519 6701 0
1518 -6700 0
-1518 6700 0
1517 -6699 0
-1517 6699 0
1516 -6698 0
-1516 6698 0
1515 -6697 0
-1515 6697 0
1514 -6696 0
-1514 6696 0
1513 -6695 0
-1513 6695 0
1512 -6694 0
-1512 6694 0
1511 -6693 0
-1511 6693 0
1510 -6692 0
-1510 6692 0
1509 -6691 0
-1509 6691 0
1508 -6690 0
-1508 6690 0
1507 -6689 0
-1507 6689 0
1506 -6688 0
-1506 6688 0
1505 -6687 0
-1505 6687 0
1504 -6686 0
-1504 6686 0
1503 -6685 0
-1503 6685 0
1502 -6684 0
-1502 6684 0
1501 -6683 0
-1501 6683 0
1500 -6682 0
-1500 6682 0
1499 -6681 0
-1499 6681 0
1498 -6680 0
-1498 6680 0
1497 -6679 0
-1497 6679 0
1496 -6678 0
-1496 6678 0
1495 -6677 0
-1495 6677 0
1494 -6676 0
-1494 6676 0
1493 -6675 0
-1493 6675 0
1492 -6674 0
-1492 6674 0
1491 -6673 0
-1491 6673 0
1490 -6672 0
-1490 6672 0
1489 -6671 0
-1489 6671 0
1488 -6670 0
-1488 6670 0
1487 -6669 0
-1487 6669 0
1486 -6668 0
-1486 6668 0
1485 -6667 0
-1485 6667 0
1484 -6666 0
-1484 6666 0
1483 -6665 0
-1483 6665 0
1482 -6664 0
-1482 6664 0
1481 -6663 0
-1481 6663 0
1480 -6662 0
-1480 6662 0
1479 -6661 0
-1479 6661 0
1478 -6660 0
-1478 6660 0
1477 -6659 0
-1477 6659 0
1476 -6658 0
-1476 6658 0
1475 -6657 0
-1475 6657 0
1474 -6656 0
-1474 6656 0
1473 -6655 0
-1473 6655 0
1472 -6654 0
-1472 6654 0
1471 -6653 0
-1471 6653 0
1470 -6652 0
-1470 6652 0
1469 -6651 0
-1469 6651 0
1468 -6650 0
-1468 6650 0
1467 -6649 0
-1467 6649 0
1466 -6648 0
-1466 6648 0
1465 -6647 0
-1465 6647 0
1464 -6646 0
-1464 6646 0
1463 -6645 0
-1463 6645 0
-1526 -1462 0
-1526 -1463 0
1526 1462 1463 0
-1527 1464 0
-1527 1526 0
1527 -1464 -1526 0
-1528 1464 0
-1528 -1527 0
1528 -1464 1527 0
-1529 -1465 0
-1529 -1528 0
1529 1465 1528 0
-1530 1466 0
-1530 1529 0
1530 -1466 -1529 0
-1531 1466 0
-1531 -1530 0
1531 -1466 1530 0
-1532 -1467 0
-1532 -1531 0
1532 1467 1531 0
-1533 1468 0
-1533 1532 0
1533 -1468 -1532 0
-1534 1468 0
-1534 -1533 0
1534 -1468 1533 0
-1535 -1469 0
-1535 -1534 0
1535 1469 1534 0
-1536 1470 0
-1536 1535 0
1536 -1470 -1535 0
-1537 1470 0
-1537 -1536 0
1537 -1470 1536 0
-1538 -1471 0
-1538 -1537 0
1538 1471 1537 0
-1539 1472 0
-1539 1538 0
1539 -1472 -1538 0
-1540 1472 0
-1540 -1539 0
1540 -1472 1539 0
-1541 -1473 0
-1541 -1540 0
1541 1473 1540 0
-1542 1474 0
-1542 1541 0
1542 -1474 -1541 0
-1543 1474 0
-1543 -1542 0
1543 -1474 1542 0
-1544 -1475 0
-1544 -1543 0
1544 1475 1543 0
-1545 1476 0
-1545 1544 0
1545 -1476 -1544 0
-1546 1476 0
-1546 -1545 0
1546 -1476 1545 0
-1547 -1477 0
-1547 -1546 0
1547 1477 1546 0
-1548 1478 0
-1548 1547 0
1548 -1478 -1547 0
-1549 1478 0
-1549 -1548 0
1549 -1478 1548 0
-1550 -1479 0
-1550 -1549 0
1550 1479 1549 0
-1551 1480 0
-1551 1550 0
1551 -1480 -1550 0
-1552 1480 0
-1552 -1551 0
1552 -1480 1551 0
-1553 -1481 0
-1553 -1552 0
1553 1481 1552 0
-1554 1482 0
-1554 1553 0
1554 -1482 -1553 0
-1555 1482 0
-1555 -1554 0
1555 -1482 1554 0
-1556 -1483 0
-1556 -1555 0
1556 1483 1555 0
-1557 1484 0
-1557 1556 0
1557 -1484 -1556 0
-1558 1484 0
-1558 -1557 0
1558 -1484 1557 0
-1559 -1485 0
-1559 -1558 0
1559 1485 1558 0
-1560 1486 0
-1560 1559 0
1560 -1486 -1559 0
-1561 1486 0
-1561 -1560 0
1561 -1486 1560 0
-1562 -1487 0
-1562 -1561 0
1562 1487 1561 0
-1563 1488 0
-1563 1562 0
1563 -1488 -1562 0
-1564 1488 0
-1564 -1563 0
1564 -1488 1563 0
-1565 -1489 0
-1565 -1564 0
1565 1489 1564 0
-1566 1490 0
-1566 1565 0
1566 -1490 -1565 0
-1567 1490 0
-1567 -1566 0
1567 -1490 1566 0
-1568 -1491 0
-1568 -1567 0
1568 1491 1567 0
-1569 1492 0
-1569 1568 0
1569 -1492 -1568 0
-1570 1492 0
-1570 -1569 0
1570 -1492 1569 0
-1571 -1493 0
-1571 -1570 0
1571 1493 1570 0
-1572 1494 0
-1572 1571 0
1572 -1494 -1571 0
-1573 1494 0
-1573 -1572 0
1573 -1494 1572 0
-1574 -1495 0
-1574 -1573 0
1574 1495 1573 0
-1575 1496 0
-1575 1574 0
1575 -1496 -1574 0
-1576 1496 0
-1576 -1575 0
1576 -1496 1575 0
-1577 -1497 0
-1577 -1576 0
1577 1497 1576 0
-1578 1498 0
-1578 1577 0
1578 -1498 -1577 0
-1579 1498 0
-1579 -1578 0
1579 -1498 1578 0
-1580 -1499 0
-1580 -1579 0
1580 1499 1579 0
-1581 1500 0
-1581 1580 0
1581 -1500 -1580 0
-1582 1500 0
-1582 -1581 0
1582 -1500 1581 0
-1583 -1501 0
-1583 -1582 0
1583 1501 1582 0
-1584 1502 0
-1584 1583 0
1584 -1502 -1583 0
-1585 1502 0
-1585 -1584 0
1585 -1502 1584 0
-1586 -1503 0
-1586 -1585 0
1586 1503 1585 0
-1587 1504 0
-1587 1586 0
1587 -1504 -1586 0
-1588 1504 0
-1588 -1587 0
1588 -1504 1587 0
-1589 -1505 0
-1589 -1588 0
1589 1505 1588 0
-1590 1506 0
-1590 1589 0
1590 -1506 -1589 0
-1591 1506 0
-1591 -1590 0
1591 -1506 1590 0
-1592 -1507 0
-1592 -1591 0
1592 1507 1591 0
-1593 1508 0
-1593 1592 0
1593 -1508 -1592 0
-1594 1508 0
-1594 -1593 0
1594 -1508 1593 0
-1595 -1509 0
-1595 -1594 0
1595 1509 1594 0
-1596 1510 0
-1596 1595 0
1596 -1510 -1595 0
-1597 1510 0
-1597 -1596 0
1597 -1510 1596 0
-1598 -1511 0
-1598 -1597 0
1598 1511 1597 0
-1599 1512 0
-1599 1598 0
1599 -1512 -1598 0
-1600 1512 0
-1600 -1599 0
1600 -1512 1599 0
-1601 -1513 0
-1601 -1600 0
1601 1513 1600 0
-1602 1514 0
-1602 1601 0
1602 -1514 -1601 0
-1603 1514 0
-1603 -1602 0
1603 -1514 1602 0
-1604 -1515 0
-1604 -1603 0
1604 1515 1603 0
-1605 1516 0
-1605 1604 0
1605 -1516 -1604 0
-1606 1516 0
-1606 -1605 0
1606 -1516 1605 0
-1607 -1517 0
-1607 -1606 0
1607 1517 1606 0
-1608 1518 0
-1608 1607 0
1608 -1518 -1607 0
-1609 1518 0
-1609 -1608 0
1609 -1518 1608 0
-1610 -1519 0
-1610 -1609 0
1610 1519 1609 0
-1611 1520 0
-1611 1610 0
1611 -1520 -1610 0
-1612 1520 0
-1612 -1611 0
1612 -1520 1611 0
-1613 -1521 0
-1613 -1612 0
1613 1521 1612 0
-1614 1522 0
-1614 1613 0
1614 -1522 -1613 0
-1615 1522 0
-1615 -1614 0
1615 -1522 1614 0
-1616 -1523 0
-1616 -1615 0
1616 1523 1615 0
-1617 1524 0
-1617 1616 0
1617 -1524 -1616 0
-1618 1524 0
-1618 -1617 0
1618 -1524 1617 0
-1619 -1525 0
-1619 -1618 0
1619 1525 1618 0
-1620 1462 0
-1620 -1619 0
1620 -1462 1619 0
-1621 1461 0
-1621 -1620 0
1621 -1461 1620 0
1622 -6708 0
-1622 6708 0
-1623 1621 0
-1623 1622 0
1623 -1621 -1622 0
1687 -6772 0
-1687 6772 0
1686 -6771 0
-1686 6771 0
1685 -6770 0
-1685 6770 0
1684 -6769 0
-1684 6769 0
1683 -6768 0
-1683 6768 0
1682 -6767 0
-1682 6767 0
1681 -6766 0
-1681 6766 0
1680 -6765 0
-1680 6765 0
1679 -6764 0
-1679 6764 0
1678 -6763 0
-1678 6763 0
1677 -6762 0
-1677 6762 0
1676 -6761 0
-1676 6761 0
1675 -6760 0
-1675 6760 0
1674 -6759 0
-1674 6759 0
1673 -6758 0
-1673 6758 0
1672 -6757 0
-1672 6757 0
1671 -6756 0
-1671 6756 0
1670 -6755 0
-1670 6755 0
1669 -6754 0
-1669 6754 0
1668 -6753 0
-1668 6753 0
1667 -6752 0
-1667 6752 0
1666 -6751 0
-1666 6751 0
1665 -6750 0
-1665 6750 0
1664 -6749 0
-1664 6749 0
1663 -6748 0
-1663 6748 0
1662 -6747 0
-1662 6747 0
1661 -6746 0
-1661 6746 0
1660 -6745 0
-1660 6745 0
1659 -6744 0
-1659 6744 0
1658 -6743 0
-1658 6743 0
1657 -6742 0
-1657 6742 0
1656 -6741 0
-1656 6741 0
1655 -6740 0
-1655 6740 0
1654 -6739 0
-1654 6739 0
1653 -6738 0
-1653 6738 0
1652 -6737 0
-1652 6737 0
1651 -6736 0
-1651 6736 0
1650 -6735 0
-1650 6735 0
1649 -6734 0
-1649 6734 0
1648 -6733 0
-1648 6733 0
1647 -6732 0
-1647 6732 0
1646 -6731 0
-1646 6731 0
1645 -6730 0
-1645 6730 0
1644 -6729 0
-1644 6729 0
1643 -6728 0
-1643 6728 0
1642 -6727 0
-1642 6727 0
1641 -6726 0
-1641 6726 0
1640 -6725 0
-1640 6725 0
1639 -6724 0
-1639 6724 0
1638 -6723 0
-1638 6723 0
1637 -6722 0
-1637 6722 0
1636 -6721 0
-1636 6721 0
1635 -6720 0
-1635 6720 0
1634 -6719 0
-1634 6719 0
1633 -6718 0
-1633 6718 0
1632 -6717 0
-1632 6717 0
1631 -6716 0
-1631 6716 0
1630 -6715 0
-1630 6715 0
1629 -6714 0
-1629 6714 0
1628 -6713 0
-1628 6713 0
1627 -6712 0
-1627 6712 0
1626 -6711 0
-1626 6711 0
1625 -6710 0
-1625 6710 0
-1688 -1624 0
-1688 -1625 0
1688 1624 1625 0
-1689 1626 0
-1689 1688 0
1689 -1626 -1688 0
-1690 1626 0
-1690 -1689 0
1690 -1626 1689 0
-1691 -1627 0
-1691 -1690 0
1691 1627 1690 0
-1692 1628 0
-1692 1691 0
1692 -1628 -1691 0
-1693 1628 0
-1693 -1692 0
1693 -1628 1692 0
-1694 -1629 0
-1694 -1693 0
1694 1629 1693 0
-1695 1630 0
-1695 1694 0
1695 -1630 -1694 0
-1696 1630 0
-1696 -1695 0
1696 -1630 1695 0
-1697 -1631 0
-1697 -1696 0
1697 1631 1696 0
-1698 1632 0
-1698 1697 0
1698 -1632 -1697 0
-1699 1632 0
-1699 -1698 0
1699 -1632 1698 0
-1700 -1633 0
-1700 -1699 0
1700 1633 1699 0
-1701 1634 0
-1701 1700 0
1701 -1634 -1700 0
-1702 1634 0
-1702 -1701 0
1702 -1634 1701 0
-1703 -1635 0
-1703 -1702 0
1703 1635 1702 0
-1704 1636 0
-1704 1703 0
1704 -1636 -1703 0
-1705 1636 0
-1705 -1704 0
1705 -1636 1704 0
-1706 -1637 0
-1706 -1705 0
1706 1637 1705 0
-1707 1638 0
-1707 1706 0
1707 -1638 -1706 0
-1708 1638 0
-1708 -1707 0
1708 -1638 1707 0
-1709 -1639 0
-1709 -1708 0
1709 1639 1708 0
-1710 1640 0
-1710 1709 0
1710 -1640 -1709 0
-1711 1640 0
-1711 -1710 0
1711 -1640 1710 0
-1712 -1641 0
-1712 -1711 0
1712 1641 1711 0
-1713 1642 0
-1713 1712 0
1713 -1642 -1712 0
-1714 1642 0
-1714 -1713 0
1714 -1642 1713 0
-1715 -1643 0
-1715 -1714 0
1715 1643 1714 0
-1716 1644 0
-1716 1715 0
1716 -1644 -1715 0
-1717 1644 0
-1717 -1716 0
1717 -1644 1716 0
-1718 -1645 0
-1718 -1717 0
1718 1645 1717 0
-1719 1646 0
-1719 1718 0
1719 -1646 -1718 0
-1720 1646 0
-1720 -1719 0
1720 -1646 1719 0
-1721 -1647 0
-1721 -1720 0
1721 1647 1720 0
-1722 1648 0
-1722 1721 0
1722 -1648 -1721 0
-1723 1648 0
-1723 -1722 0
1723 -1648 1722 0
-1724 -1649 0
-1724 -1723 0
1724 1649 1723 0
-1725 1650 0
-1725 1724 0
1725 -1650 -1724 0
-1726 1650 0
-1726 -1725 0
1726 -1650 1725 0
-1727 -1651 0
-1727 -1726 0
1727 1651 1726 0
-1728 1652 0
-1728 1727 0
1728 -1652 -1727 0
-1729 1652 0
-1729 -1728 0
1729 -1652 1728 0
-1730 -1653 0
-1730 -1729 0
1730 1653 1729 0
-1731 1654 0
-1731 1730 0
1731 -1654 -1730 0
-1732 1654 0
-1732 -1731 0
1732 -1654 1731 0
-1733 -1655 0
-1733 -1732 0
1733 1655 1732 0
-1734 1656 0
-1734 1733 0
1734 -1656 -1733 0
-1735 1656 0
-1735 -1734 0
1735 -1656 1734 0
-1736 -1657 0
-1736 -1735 0
1736 1657 1735 0
-1737 1658 0
-1737 1736 0
1737 -1658 -1736 0
-1738 1658 0
-1738 -1737 0
1738 -1658 1737 0
-1739 -1659 0
-1739 -1738 0
1739 1659 1738 0
-1740 1660 0
-1740 1739 0
1740 -1660 -1739 0
-1741 1660 0
-1741 -1740 0
1741 -1660 1740 0
-1742 -1661 0
-1742 -1741 0
1742 1661 1741 0
-1743 1662 0
-1743 1742 0
1743 -1662 -1742 0
-1744 1662 0
-1744 -1743 0
1744 -1662 1743 0
-1745 -1663 0
-1745 -1744 0
1745 1663 1744 0
-1746 1664 0
-1746 1745 0
1746 -1664 -1745 0
-1747 1664 0
-1747 -1746 0
1747 -1664 1746 0
-1748 -1665 0
-1748 -1747 0
1748 1665 1747 0
-1749 1666 0
-1749 1748 0
1749 -1666 -1748 0
-1750 1666 0
-1750 -1749 0
1750 -1666 1749 0
-1751 -1667 0
-1751 -1750 0
1751 1667 1750 0
-1752 1668 0
-1752 1751 0
1752 -1668 -1751 0
-1753 1668 0
-1753 -1752 0
1753 -1668 1752 0
-1754 -1669 0
-1754 -1753 0
1754 1669 1753 0
-1755 1670 0
-1755 1754 0
1755 -1670 -1754 0
-1756 1670 0
-1756 -1755 0
1756 -1670 1755 0
-1757 -1671 0
-1757 -1756 0
1757 1671 1756 0
-1758 1672 0
-1758 1757 0
1758 -1672 -1757 0
-1759 1672 0
-1759 -1758 0
1759 -1672 1758 0
-1760 -1673 0
-1760 -1759 0
1760 1673 1759 0
-1761 1674 0
-1761 1760 0
1761 -1674 -1760 0
-1762 1674 0
-1762 -1761 0
1762 -1674 1761 0
-1763 -1675 0
-1763 -1762 0
1763 1675 1762 0
-1764 1676 0
-1764 1763 0
1764 -1676 -1763 0
-1765 1676 0
-1765 -1764 0
1765 -1676 1764 0
-1766 -1677 0
-1766 -1765 0
1766 1677 1765 0
-1767 1678 0
-1767 1766 0
1767 -1678 -1766 0
-1768 1678 0
-1768 -1767 0
1768 -1678 1767 0
-1769 -1679 0
-1769 -1768 0
1769 1679 1768 0
-1770 1680 0
-1770 1769 0
1770 -1680 -1769 0
-1771 1680 0
-1771 -1770 0
1771 -1680 1770 0
-1772 -1681 0
-1772 -1771 0
1772 1681 1771 0
-1773 1682 0
-1773 1772 0
1773 -1682 -1772 0
-1774 1682 0
-1774 -1773 0
1774 -1682 1773 0
-1775 -1683 0
-1775 -1774 0
1775 1683 1774 0
-1776 1684 0
-1776 1775 0
1776 -1684 -1775 0
-1777 1684 0
-1777 -1776 0
1777 -1684 1776 0
-1778 -1685 0
-1778 -1777 0
1778 1685 1777 0
-1779 1686 0
-1779 1778 0
1779 -1686 -1778 0
-1780 1686 0
-1780 -1779 0
1780 -1686 1779 0
-1781 -1687 0
-1781 -1780 0
1781 1687 1780 0
-1782 1624 0
-1782 -1781 0
1782 -1624 1781 0
-1783 1623 0
-1783 -1782 0
1783 -1623 1782 0
1784 -6773 0
-1784 6773 0
-1785 1783 0
-1785 1784 0
1785 -1783 -1784 0
1849 -6837 0
-1849 6837 0
1848 -6836 0
-1848 6836 0
1847 -6835 0
-1847 6835 0
1846 -6834 0
-1846 6834 0
1845 -6833 0
-1845 6833 0
1844 -6832 0
-1844 6832 0
1843 -6831 0
-1843 6831 0
1842 -6830 0
-1842 6830 0
1841 -6829 0
-1841 6829 0
1840 -6828 0
-1840 6828 0
1839 -6827 0
-1839 6827 0
1838 -6826 0
-1838 6826 0
1837 -6825 0
-1837 6825 0
1836 -6824 0
-1836 6824 0
1835 -6823 0
-1835 6823 0
1834 -6822 0
-1834 6822 0
1833 -6821 0
-1833 6821 0
1832 -6820 0
-1832 6820 0
1831 -6819 0
-1831 6819 0
1830 -6818 0
-1830 6818 0
1829 -6817 0
-1829 6817 0
1828 -6816 0
-1828 6816 0
1827 -6815 0
-1827 6815 0
1826 -6814 0
-1826 6814 0
1825 -6813 0
-1825 6813 0
1824 -6812 0
-1824 6812 0
1823 -6811 0
-1823 6811 0
1822 -6810 0
-1822 6810 0
1821 -6809 0
-1821 6809 0
1820 -6808 0
-1820 6808 0
1819 -6807 0
-1819 6807 0
1818 -6806 0
-1818 6806 0
1817 -6805 0
-1817 6805 0
1816 -6804 0
-1816 6804 0
1815 -6803 0
-1815 6803 0
1814 -6802 0
-1814 6802 0
1813 -6801 0
-1813 6801 0
1812 -6800 0
-1812 6800 0
1811 -6799 0
-1811 6799 0
1810 -6798 0
-1810 6798 0
1809 -6797 0
-1809 6797 0
1808 -6796 0
-1808 6796 0
1807 -6795 0
-1807 6795 0
1806 -6794 0
-1806 6794 0
1805 -6793 0
-1805 6793 0
1804 -6792 0
-1804 6792 0
1803 -6791 0
-1803 6791 0
1802 -6790 0
-1802 6790 0
1801 -6789 0
-1801 6789 0
1800 -6788 0
-1800 6788 0
1799 -6787 0
-1799 6787 0
1798 -6786 0
-1798 6786 0
1797 -6785 0
-1797 6785 0
1796 -6784 0
-1796 6784 0
1795 -6783 0
-1795 6783 0
1794 -6782 0
-1794 6782 0
1793 -6781 0
-1793 6781 0
1792 -6780 0
-1792 6780 0
1791 -6779 0
-1791 6779 0
1790 -6778 0
-1790 6778 0
1789 -6777 0
-1789 6777 0
1788 -6776 0
-1788 6776 0
1787 -6775 0
-1787 6775 0
-1850 -1786 0
-1850 -1787 0
1850 1786 1787 0
-1851 1788 0
-1851 1850 0
1851 -1788 -1850 0
-1852 1788 0
-1852 -1851 0
1852 -1788 1851 0
-1853 -1789 0
-1853 -1852 0
1853 1789 1852 0
-1854 1790 0
-1854 1853 0
1854 -1790 -1853 0
-1855 1790 0
-1855 -1854 0
1855 -1790 1854 0
-1856 -1791 0
-1856 -1855 0
1856 1791 1855 0
-1857 1792 0
-1857 1856 0
1857 -1792 -1856 0
-1858 1792 0
-1858 -1857 0
1858 -1792 1857 0
-1859 -1793 0
-1859 -1858 0
1859 1793 1858 0
-1860 1794 0
-1860 1859 0
1860 -1794 -1859 0
-1861 1794 0
-1861 -1860 0
1861 -1794 1860 0
-1862 -1795 0
-1862 -1861 0
1862 1795 1861 0
-1863 1796 0
-1863 1862 0
1863 -1796 -1862 0
-1864 1796 0
-1864 -1863 0
1864 -1796 1863 0
-1865 -1797 0
-1865 -1864 0
1865 1797 1864 0
-1866 1798 0
-1866 1865 0
1866 -1798 -1865 0
-1867 1798 0
-1867 -1866 0
1867 -1798 1866 0
-1868 -1799 0
-1868 -1867 0
1868 1799 1867 0
-1869 1800 0
-1869 1868 0
1869 -1800 -1868 0
-1870 1800 0
-1870 -1869 0
1870 -1800 1869 0
-1871 -1801 0
-1871 -1870 0
1871 1801 1870 0
-1872 1802 0
-1872 1871 0
1872 -1802 -1871 0
-1873 1802 0
-1873 -1872 0
1873 -1802 1872 0
-1874 -1803 0
-1874 -1873 0
1874 1803 1873 0
-1875 1804 0
-1875 1874 0
1875 -1804 -1874 0
-1876 1804 0
-1876 -1875 0
1876 -1804 1875 0
-1877 -1805 0
-1877 -1876 0
1877 1805 1876 0
-1878 1806 0
-1878 1877 0
1878 -1806 -1877 0
-1879 1806 0
-1879 -1878 0
1879 -1806 1878 0
-1880 -1807 0
-1880 -1879 0
1880 1807 1879 0
-1881 1808 0
-1881 1880 0
1881 -1808 -1880 0
-1882 1808 0
-1882 -1881 0
1882 -1808 1881 0
-1883 -1809 0
-1883 -1882 0
1883 1809 1882 0
-1884 1810 0
-1884 1883 0
1884 -1810 -1883 0
-1885 1810 0
-1885 -1884 0
1885 -1810 1884 0
-1886 -1811 0
-1886 -1885 0
1886 1811 1885 0
-1887 1812 0
-1887 1886 0
1887 -1812 -1886 0
-1888 1812 0
-1888 -1887 0
1888 -1812 1887 0
-1889 -1813 0
-1889 -1888 0
1889 1813 1888 0
-1890 1814 0
-1890 1889 0
1890 -1814 -1889 0
-1891 1814 0
-1891 -1890 0
1891 -1814 1890 0
-1892 -1815 0
-1892 -1891 0
1892 1815 1891 0
-1893 1816 0
-1893 1892 0
1893 -1816 -1892 0
-1894 1816 0
-1894 -1893 0
1894 -1816 1893 0
-1895 -1817 0
-1895 -1894 0
1895 1817 1894 0
-1896 1818 0
-1896 1895 0
1896 -1818 -1895 0
-1897 1818 0
-1897 -1896 0
1897 -1818 1896 0
-1898 -1819 0
-1898 -1897 0
1898 1819 1897 0
-1899 1820 0
-1899 1898 0
1899 -1820 -1898 0
-1900 1820 0
-1900 -1899 0
1900 -1820 1899 0
-1901 -1821 0
-1901 -1900 0
1901 1821 1900 0
-1902 1822 0
-1902 1901 0
1902 -1822 -1901 0
-1903 1822 0
-1903 -1902 0
1903 -1822 1902 0
-1904 -1823 0
-1904 -1903 0
1904 1823 1903 0
-1905 1824 0
-1905 1904 0
1905 -1824 -1904 0
-1906 1824 0
-1906 -1905 0
1906 -1824 1905 0
-1907 -1825 0
-1907 -1906 0
1907 1825 1906 0
-1908 1826 0
-1908 1907 0
1908 -1826 -1907 0
-1909 1826 0
-1909 -1908 0
1909 -1826 1908 0
-1910 -1827 0
-1910 -1909 0
1910 1827 1909 0
-1911 1828 0
-1911 1910 0
1911 -1828 -1910 0
-1912 1828 0
-1912 -1911 0
1912 -1828 1911 0
-1913 -1829 0
-1913 -1912 0
1913 1829 1912 0
-1914 1830 0
-1914 1913 0
1914 -1830 -1913 0
-1915 1830 0
-1915 -1914 0
1915 -1830 1914 0
-1916 -1831 0
-1916 -1915 0
1916 1831 1915 0
-1917 1832 0
-1917 1916 0
1917 -1832 -1916 0
-1918 1832 0
-1918 -1917 0
1918 -1832 1917 0
-1919 -1833 0
-1919 -1918 0
1919 1833 1918 0
-1920 1834 0
-1920 1919 0
1920 -1834 -1919 0
-1921 1834 0
-1921 -1920 0
1921 -1834 1920 0
-1922 -1835 0
-1922 -1921 0
1922 1835 1921 0
-1923 1836 0
-1923 1922 0
1923 -1836 -1922 0
-1924 1836 0
-1924 -1923 0
1924 -1836 1923 0
-1925 -1837 0
-1925 -1924 0
1925 1837 1924 0
-1926 1838 0
-1926 1925 0
1926 -1838 -1925 0
-1927 1838 0
-1927 -1926 0
1927 -1838 1926 0
-1928 -1839 0
-1928 -1927 0
1928 1839 1927 0
-1929 1840 0
-1929 1928 0
1929 -1840 -1928 0
-1930 1840 0
-1930 -1929 0
1930 -1840 1929 0
-1931 -1841 0
-1931 -1930 0
1931 1841 1930 0
-1932 1842 0
-1932 1931 0
1932 -1842 -1931 0
-1933 1842 0
-1933 -1932 0
1933 -1842 1932 0
-1934 -1843 0
-1934 -1933 0
1934 1843 1933 0
-1935 1844 0
-1935 1934 0
1935 -1844 -1934 0
-1936 1844 0
-1936 -1935 0
1936 -1844 1935 0
-1937 -1845 0
-1937 -1936 0
1937 1845 1936 0
-1938 1846 0
-1938 1937 0
1938 -1846 -1937 0
-1939 1846 0
-1939 -1938 0
1939 -1846 1938 0
-1940 -1847 0
-1940 -1939 0
1940 1847 1939 0
-1941 1848 0
-1941 1940 0
1941 -1848 -1940 0
-1942 1848 0
-1942 -1941 0
1942 -1848 1941 0
-1943 -1849 0
-1943 -1942 0
1943 1849 1942 0
-1944 1786 0
-1944 -1943 0
1944 -1786 1943 0
-1945 1785 0
-1945 -1944 0
1945 -1785 1944 0
1946 -6838 0
-1946 6838 0
-1947 1945 0
-1947 1946 0
1947 -1945 -1946 0
2011 -6902 0
-2011 6902 0
2010 -6901 0
-2010 6901 0
2009 -6900 0
-2009 6900 0
2008 -6899 0
-2008 6899 0
2007 -6898 0
-2007 6898 0
2006 -6897 0
-2006 6897 0
2005 -6896 0
-2005 6896 0
2004 -6895 0
-2004 6895 0
2003 -6894 0
-2003 6894 0
2002 -6893 0
-2002 6893 0
2001 -6892 0
-2001 6892 0
2000 -6891 0
-2000 6891 0
1999 -6890 0
-1999 6890 0
1998 -6889 0
-1998 6889 0
1997 -6888 0
-1997 6888 0
1996 -6887 0
-1996 6887 0
1995 -6886 0
-1995 6886 0
1994 -6885 0
-1994 6885 0
1993 -6884 0
-1993 6884 0
1992 -6883 0
-1992 6883 0
1991 -6882 0
-1991 6882 0
1990 -6881 0
-1990 6881 0
1989 -6880 0
-1989 6880 0
1988 -6879 0
-1988 6879 0
1987 -6878 0
-1987 6878 0
1986 -6877 0
-1986 6877 0
1985 -6876 0
-1985 6876 0
1984 -6875 0
-1984 6875 0
1983 -6874 0
-1983 6874 0
1982 -6873 0
-1982 6873 0
1981 -6872 0
-1981 6872 0
1980 -6871 0
-1980 6871 0
1979 -6870 0
-1979 6870 0
1978 -6869 0
-1978 6869 0
1977 -6868 0
-1977 6868 0
1976 -6867 0
-1976 6867 0
1975 -6866 0
-1975 6866 0
1974 -6865 0
-1974 6865 0
1973 -6864 0
-1973 6864 0
1972 -6863 0
-1972 6863 0
1971 -6862 0
-1971 6862 0
1970 -6861 0
-1970 6861 0
1969 -6860 0
-1969 6860 0
1968 -6859 0
-1968 6859 0
1967 -6858 0
-1967 6858 0
1966 -6857 0
-1966 6857 0
1965 -6856 0
-1965 6856 0
1964 -6855 0
-1964 6855 0
1963 -6854 0
-1963 6854 0
1962 -6853 0
-1962 6853 0
1961 -6852 0
-1961 6852 0
1960 -6851 0
-1960 6851 0
1959 -6850 0
-1959 6850 0
1958 -6849 0
-1958 6849 0
1957 -6848 0
-1957 6848 0
1956 -6847 0
-1956 6847 0
1955 -6846 0
-1955 6846 0
1954 -6845 0
-1954 6845 0
1953 -6844 0
-1953 6844 0
1952 -6843 0
-1952 6843 0
1951 -6842 0
-1951 6842 0
1950 -6841 0
-1950 6841 0
1949 -6840 0
-1949 6840 0
-2012 -1948 0
-2012 -1949 0
2012 1948 1949 0
-2013 1950 0
-2013 2012 0
2013 -1950 -2012 0
-2014 1950 0
-2014 -2013 0
2014 -1950 2013 0
-2015 -1951 0
-2015 -2014 0
2015 1951 2014 0
-2016 1952 0
-2016 2015 0
2016 -1952 -2015 0
-2017 1952 0
-2017 -2016 0
2017 -1952 2016 0
-2018 -1953 0
-2018 -2017 0
2018 1953 2017 0
-2019 1954 0
-2019 2018 0
2019 -1954 -2018 0
-2020 1954 0
-2020 -2019 0
2020 -1954 2019 0
-2021 -1955 0
-2021 -2020 0
2021 1955 2020 0
-2022 1956 0
-2022 2021 0
2022 -1956 -2021 0
-2023 1956 0
-2023 -2022 0
2023 -1956 2022 0
-2024 -1957 0
-2024 -2023 0
2024 1957 2023 0
-2025 1958 0
-2025 2024 0
2025 -1958 -2024 0
-2026 1958 0
-2026 -2025 0
2026 -1958 2025 0
-2027 -1959 0
-2027 -2026 0
2027 1959 2026 0
-2028 1960 0
-2028 2027 0
2028 -1960 -2027 0
-2029 1960 0
-2029 -2028 0
2029 -1960 2028 0
-2030 -1961 0
-2030 -2029 0
2030 1961 2029 0
-2031 1962 0
-2031 2030 0
2031 -1962 -2030 0
-2032 1962 0
-2032 -2031 0
2032 -1962 2031 0
-2033 -1963 0
-2033 -2032 0
2033 1963 2032 0
-2034 1964 0
-2034 2033 0
2034 -1964 -2033 0
-2035 1964 0
-2035 -2034 0
2035 -1964 2034 0
-2036 -1965 0
-2036 -2035 0
2036 1965 2035 0
-2037 1966 0
-2037 2036 0
2037 -1966 -2036 0
-2038 1966 0
-2038 -2037 0
2038 -1966 2037 0
-2039 -1967 0
-2039 -2038 0
2039 1967 2038 0
-2040 1968 0
-2040 2039 0
2040 -1968 -2039 0
-2041 1968 0
-2041 -2040 0
2041 -1968 2040 0
-2042 -1969 0
-2042 -2041 0
2042 1969 2041 0
-2043 1970 0
-2043 2042 0
2043 -1970 -2042 0
-2044 1970 0
-2044 -2043 0
2044 -1970 2043 0
-2045 -1971 0
-2045 -2044 0
2045 1971 2044 0
-2046 1972 0
-2046 2045 0
2046 -1972 -2045 0
-2047 1972 0
-2047 -2046 0
2047 -1972 2046 0
-2048 -1973 0
-2048 -2047 0
2048 1973 2047 0
-2049 1974 0
-2049 2048 0
2049 -1974 -2048 0
-2050 1974 0
-2050 -2049 0
2050 -1974 2049 0
-2051 -1975 0
-2051 -2050 0
2051 1975 2050 0
-2052 1976 0
-2052 2051 0
2052 -1976 -2051 0
-2053 1976 0
-2053 -2052 0
2053 -1976 2052 0
-2054 -1977 0
-2054 -2053 0
2054 1977 2053 0
-2055 1978 0
-2055 2054 0
2055 -1978 -2054 0
-2056 1978 0
-2056 -2055 0
2056 -1978 2055 0
-2057 -1979 0
-2057 -2056 0
2057 1979 2056 0
-2058 1980 0
-2058 2057 0
2058 -1980 -2057 0
-2059 1980 0
-2059 -2058 0
2059 -1980 2058 0
-2060 -1981 0
-2060 -2059 0
2060 1981 2059 0
-2061 1982 0
-2061 2060 0
2061 -1982 -2060 0
-2062 1982 0
-2062 -2061 0
2062 -1982 2061 0
-2063 -1983 0
-2063 -2062 0
2063 1983 2062 0
-2064 1984 0
-2064 2063 0
2064 -1984 -2063 0
-2065 1984 0
-2065 -2064 0
2065 -1984 2064 0
-2066 -1985 0
-2066 -2065 0
2066 1985 2065 0
-2067 1986 0
-2067 2066 0
2067 -1986 -2066 0
-2068 1986 0
-2068 -2067 0
2068 -1986 2067 0
-2069 -1987 0
-2069 -2068 0
2069 1987 2068 0
-2070 1988 0
-2070 2069 0
2070 -1988 -2069 0
-2071 1988 0
-2071 -2070 0
2071 -1988 2070 0
-2072 -1989 0
-2072 -2071 0
2072 1989 2071 0
-2073 1990 0
-2073 2072 0
2073 -1990 -2072 0
-2074 1990 0
-2074 -2073 0
2074 -1990 2073 0
-2075 -1991 0
-2075 -2074 0
2075 1991 2074 0
-2076 1992 0
-2076 2075 0
2076 -1992 -2075 0
-2077 1992 0
-2077 -2076 0
2077 -1992 2076 0
-2078 -1993 0
-2078 -2077 0
2078 1993 2077 0
-2079 1994 0
-2079 2078 0
2079 -1994 -2078 0
-2080 1994 0
-2080 -2079 0
2080 -1994 2079 0
-2081 -1995 0
-2081 -2080 0
2081 1995 2080 0
-2082 1996 0
-2082 2081 0
2082 -1996 -2081 0
-2083 1996 0
-2083 -2082 0
2083 -1996 2082 0
-2084 -1997 0
-2084 -2083 0
2084 1997 2083 0
-2085 1998 0
-2085 2084 0
2085 -1998 -2084 0
-2086 1998 0
-2086 -2085 0
2086 -1998 2085 0
-2087 -1999 0
-2087 -2086 0
2087 1999 2086 0
-2088 2000 0
-2088 2087 0
2088 -2000 -2087 0
-2089 2000 0
-2089 -2088 0
2089 -2000 2088 0
-2090 -2001 0
-2090 -2089 0
2090 2001 2089 0
-2091 2002 0
-2091 2090 0
2091 -2002 -2090 0
-2092 2002 0
-2092 -2091 0
2092 -2002 2091 0
-2093 -2003 0
-2093 -2092 0
2093 2003 2092 0
-2094 2004 0
-2094 2093 0
2094 -2004 -2093 0
-2095 2004 0
-2095 -2094 0
2095 -2004 2094 0
-2096 -2005 0
-2096 -2095 0
2096 2005 2095 0
-2097 2006 0
-2097 2096 0
2097 -2006 -2096 0
-2098 2006 0
-2098 -2097 0
2098 -2006 2097 0
-2099 -2007 0
-2099 -2098 0
2099 2007 2098 0
-2100 2008 0
-2100 2099 0
2100 -2008 -2099 0
-2101 2008 0
-2101 -2100 0
2101 -2008 2100 0
-2102 -2009 0
-2102 -2101 0
2102 2009 2101 0
-2103 2010 0
-2103 2102 0
2103 -2010 -2102 0
-2104 2010 0
-2104 -2103 0
2104 -2010 2103 0
-2105 -2011 0
-2105 -2104 0
2105 2011 2104 0
-2106 1948 0
-2106 -2105 0
2106 -1948 2105 0
-2107 1947 0
-2107 -2106 0
2107 -1947 2106 0
2108 -6903 0
-2108 6903 0
-2109 2107 0
-2109 2108 0
2109 -2107 -2108 0
2173 -6967 0
-2173 6967 0
2172 -6966 0
-2172 6966 0
2171 -6965 0
-2171 6965 0
2170 -6964 0
-2170 6964 0
2169 -6963 0
-2169 6963 0
2168 -6962 0
-2168 6962 0
2167 -6961 0
-2167 6961 0
2166 -6960 0
-2166 6960 0
2165 -6959 0
-2165 6959 0
2164 -6958 0
-2164 6958 0
2163 -6957 0
-2163 6957 0
2162 -6956 0
-2162 6956 0
2161 -6955 0
-2161 6955 0
2160 -6954 0
-2160 6954 0
2159 -6953 0
-2159 6953 0
2158 -6952 0
-2158 6952 0
2157 -6951 0
-2157 6951 0
2156 -6950 0
-2156 6950 0
2155 -6949 0
-2155 6949 0
2154 -6948 0
-2154 6948 0
2153 -6947 0
-2153 6947 0
2152 -6946 0
-2152 6946 0
2151 -6945 0
-2151 6945 0
2150 -6944 0
-2150 6944 0
2149 -6943 0
-2149 6943 0
2148 -6942 0
-2148 6942 0
2147 -6941 0
-2147 6941 0
2146 -6940 0
-2146 6940 0
2145 -6939 0
-2145 6939 0
2144 -6938 0
-2144 6938 0
2143 -6937 0
-2143 6937 0
2142 -6936 0
-2142 6936 0
2141 -6935 0
-2141 6935 0
2140 -6934 0
-2140 6934 0
2139 -6933 0
-2139 6933 0
2138 -6932 0
-2138 6932 0
2137 -6931 0
-2137 6931 0
2136 -6930 0
-2136 6930 0
2135 -6929 0
-2135 6929 0
2134 -6928 0
-2134 6928 0
2133 -6927 0
-2133 6927 0
2132 -6926 0
-2132 6926 0
2131 -6925 0
-2131 6925 0
2130 -6924 0
-2130 6924 0
2129 -6923 0
-2129 6923 0
2128 -6922 0
-2128 6922 0
2127 -6921 0
-2127 6921 0
2126 -6920 0
-2126 6920 0
2125 -6919 0
-2125 6919 0
2124 -6918 0
-2124 6918 0
2123 -6917 0
-2123 6917 0
2122 -6916 0
-2122 6916 0
2121 -6915 0
-2121 6915 0
2120 -6914 0
-2120 6914 0
2119 -6913 0
-2119 6913 0
2118 -6912 0
-2118 6912 0
2117 -6911 0
-2117 6911 0
2116 -6910 0
-2116 6910 0
2115 -6909 0
-2115 6909 0
2114 -6908 0
-2114 6908 0
2113 -6907 0
-2113 6907 0
2112 -6906 0
-2112 6906 0
2111 -6905 0
-2111 6905 0
-2174 -2110 0
-2174 -2111 0
2174 2110 2111 0
-2175 2112 0
-2175 2174 0
2175 -2112 -2174 0
-2176 2112 0
-2176 -2175 0
2176 -2112 2175 0
-2177 -2113 0
-2177 -2176 0
2177 2113 2176 0
-2178 2114 0
-2178 2177 0
2178 -2114 -2177 0
-2179 2114 0
-2179 -2178 0
2179 -2114 2178 0
-2180 -2115 0
-2180 -2179 0
2180 2115 2179 0
-2181 2116 0
-2181 2180 0
2181 -2116 -2180 0
-2182 2116 0
-2182 -2181 0
2182 -2116 2181 0
-2183 -2117 0
-2183 -2182 0
2183 2117 2182 0
-2184 2118 0
-2184 2183 0
2184 -2118 -2183 0
-2185 2118 0
-2185 -2184 0
2185 -2118 2184 0
-2186 -2119 0
-2186 -2185 0
2186 2119 2185 0
-2187 2120 0
-2187 2186 0
2187 -2120 -2186 0
-2188 2120 0
-2188 -2187 0
2188 -2120 2187 0
-2189 -2121 0
-2189 -2188 0
2189 2121 2188 0
-2190 2122 0
-2190 2189 0
2190 -2122 -2189 0
-2191 2122 0
-2191 -2190 0
2191 -2122 2190 0
-2192 -2123 0
-2192 -2191 0
2192 2123 2191 0
-2193 2124 0
-2193 2192 0
2193 -2124 -2192 0
-2194 2124 0
-2194 -2193 0
2194 -2124 2193 0
-2195 -2125 0
-2195 -2194 0
2195 2125 2194 0
-2196 2126 0
-2196 2195 0
2196 -2126 -2195 0
-2197 2126 0
-2197 -2196 0
2197 -2126 2196 0
-2198 -2127 0
-2198 -2197 0
2198 2127 2197 0
-2199 2128 0
-2199 2198 0
2199 -2128 -2198 0
-2200 2128 0
-2200 -2199 0
2200 -2128 2199 0
-2201 -2129 0
-2201 -2200 0
2201 2129 2200 0
-2202 2130 0
-2202 2201 0
2202 -2130 -2201 0
-2203 2130 0
-2203 -2202 0
2203 -2130 2202 0
-2204 -2131 0
-2204 -2203 0
2204 2131 2203 0
-2205 2132 0
-2205 2204 0
2205 -2132 -2204 0
-2206 2132 0
-2206 -2205 0
2206 -2132 2205 0
-2207 -2133 0
-2207 -2206 0
2207 2133 2206 0
-2208 2134 0
-2208 2207 0
2208 -2134 -2207 0
-2209 2134 0
-2209 -2208 0
2209 -2134 2208 0
-2210 -2135 0
-2210 -2209 0
2210 2135 2209 0
-2211 2136 0
-2211 2210 0
2211 -2136 -2210 0
-2212 2136 0
-2212 -2211 0
2212 -2136 2211 0
-2213 -2137 0
-2213 -2212 0
2213 2137 2212 0
-2214 2138 0
-2214 2213 0
2214 -2138 -2213 0
-2215 2138 0
-2215 -2214 0
2215 -2138 2214 0
-2216 -2139 0
-2216 -2215 0
2216 2139 2215 0
-2217 2140 0
-2217 2216 0
2217 -2140 -2216 0
-2218 2140 0
-2218 -2217 0
2218 -2140 2217 0
-2219 -2141 0
-2219 -2218 0
2219 2141 2218 0
-2220 2142 0
-2220 2219 0
2220 -2142 -2219 0
-2221 2142 0
-2221 -2220 0
2221 -2142 2220 0
-2222 -2143 0
-2222 -2221 0
2222 2143 2221 0
-2223 2144 0
-2223 2222 0
2223 -2144 -2222 0
-2224 2144 0
-2224 -2223 0
2224 -2144 2223 0
-2225 -2145 0
-2225 -2224 0
2225 2145 2224 0
-2226 2146 0
-2226 2225 0
2226 -2146 -2225 0
-2227 2146 0
-2227 -2226 0
2227 -2146 2226 0
-2228 -2147 0
-2228 -2227 0
2228 2147 2227 0
-2229 2148 0
-2229 2228 0
2229 -2148 -2228 0
-2230 2148 0
-2230 -2229 0
2230 -2148 2229 0
-2231 -2149 0
-2231 -2230 0
2231 2149 2230 0
-2232 2150 0
-2232 2231 0
2232 -2150 -2231 0
-2233 2150 0
-2233 -2232 0
2233 -2150 2232 0
-2234 -2151 0
-2234 -2233 0
2234 2151 2233 0
-2235 2152 0
-2235 2234 0
2235 -2152 -2234 0
-2236 2152 0
-2236 -2235 0
2236 -2152 2235 0
-2237 -2153 0
-2237 -2236 0
2237 2153 2236 0
-2238 2154 0
-2238 2237 0
2238 -2154 -2237 0
-2239 2154 0
-2239 -2238 0
2239 -2154 2238 0
-2240 -2155 0
-2240 -2239 0
2240 2155 2239 0
-2241 2156 0
-2241 2240 0
2241 -2156 -2240 0
-2242 2156 0
-2242 -2241 0
2242 -2156 2241 0
-2243 -2157 0
-2243 -2242 0
2243 2157 2242 0
-2244 2158 0
-2244 2243 0
2244 -2158 -2243 0
-2245 2158 0
-2245 -2244 0
2245 -2158 2244 0
-2246 -2159 0
-2246 -2245 0
2246 2159 2245 0
-2247 2160 0
-2247 2246 0
2247 -2160 -2246 0
-2248 2160 0
-2248 -2247 0
2248 -2160 2247 0
-2249 -2161 0
-2249 -2248 0
2249 2161 2248 0
-2250 2162 0
-2250 2249 0
2250 -2162 -2249 0
-2251 2162 0
-2251 -2250 0
2251 -2162 2250 0
-2252 -2163 0
-2252 -2251 0
2252 2163 2251 0
-2253 2164 0
-2253 2252 0
2253 -2164 -2252 0
-2254 2164 0
-2254 -2253 0
2254 -2164 2253 0
-2255 -2165 0
-2255 -2254 0
2255 2165 2254 0
-2256 2166 0
-2256 2255 0
2256 -2166 -2255 0
-2257 2166 0
-2257 -2256 0
2257 -2166 2256 0
-2258 -2167 0
-2258 -2257 0
2258 2167 2257 0
-2259 2168 0
-2259 2258 0
2259 -2168 -2258 0
-2260 2168 0
-2260 -2259 0
2260 -2168 2259 0
-2261 -2169 0
-2261 -2260 0
2261 2169 2260 0
-2262 2170 0
-2262 2261 0
2262 -2170 -2261 0
-2263 2170 0
-2263 -2262 0
2263 -2170 2262 0
-2264 -2171 0
-2264 -2263 0
2264 2171 2263 0
-2265 2172 0
-2265 2264 0
2265 -2172 -2264 0
-2266 2172 0
-2266 -2265 0
2266 -2172 2265 0
-2267 -2173 0
-2267 -2266 0
2267 2173 2266 0
-2268 2110 0
-2268 -2267 0
2268 -2110 2267 0
-2269 2109 0
-2269 -2268 0
2269 -2109 2268 0
2270 -6968 0
-2270 6968 0
-2271 2269 0
-2271 2270 0
2271 -2269 -2270 0
2335 -7032 0
-2335 7032 0
2334 -7031 0
-2334 7031 0
2333 -7030 0
-2333 7030 0
2332 -7029 0
-2332 7029 0
2331 -7028 0
-2331 7028 0
2330 -7027 0
-2330 7027 0
2329 -7026 0
-2329 7026 0
2328 -7025 0
-2328 7025 0
2327 -7024 0
-2327 7024 0
2326 -7023 0
-2326 7023 0
2325 -7022 0
-2325 7022 0
2324 -7021 0
-2324 7021 0
2323 -7020 0
-2323 7020 0
2322 -7019 0
-2322 7019 0
2321 -7018 0
-2321 7018 0
2320 -7017 0
-2320 7017 0
2319 -7016 0
-2319 7016 0
2318 -7015 0
-2318 7015 0
2317 -7014 0
-2317 7014 0
2316 -7013 0
-2316 7013 0
2315 -7012 0
-2315 7012 0
2314 -7011 0
-2314 7011 0
2313 -7010 0
-2313 7010 0
2312 -7009 0
-2312 7009 0
2311 -7008 0
-2311 7008 0
2310 -7007 0
-2310 7007 0
2309 -7006 0
-2309 7006 0
2308 -7005 0
-2308 7005 0
2307 -7004 0
-2307 7004 0
2306 -7003 0
-2306 7003 0
2305 -7002 0
-2305 7002 0
2304 -7001 0
-2304 7001 0
2303 -7000 0
-2303 7000 0
2302 -6999 0
-2302 6999 0
2301 -6998 0
-2301 6998 0
2300 -6997 0
-2300 6997 0
2299 -6996 0
-2299 6996 0
2298 -6995 0
-2298 6995 0
2297 -6994 0
-2297 6994 0
2296 -6993 0
-2296 6993 0
2295 -6992 0
-2295 6992 0
2294 -6991 0
-2294 6991 0
2293 -6990 0
-2293 6990 0
2292 -6989 0
-2292 6989 0
2291 -6988 0
-2291 6988 0
2290 -6987 0
-2290 6987 0
2289 -6986 0
-2289 6986 0
2288 -6985 0
-2288 6985 0
2287 -6984 0
-2287 6984 0
2286 -6983 0
-2286 6983 0
2285 -6982 0
-2285 6982 0
2284 -6981 0
-2284 6981 0
2283 -6980 0
-2283 6980 0
2282 -6979 0
-2282 6979 0
2281 -6978 0
-2281 6978 0
2280 -6977 0
-2280 6977 0
2279 -6976 0
-2279 6976 0
2278 -6975 0
-2278 6975 0
2277 -6974 0
-2277 6974 0
2276 -6973 0
-2276 6973 0
2275 -6972 0
-2275 6972 0
2274 -6971 0
-2274 6971 0
2273 -6970 0
-2273 6970 0
-2336 -2272 0
-2336 -2273 0
2336 2272 2273 0
-2337 2274 0
-2337 2336 0
2337 -2274 -2336 0
-2338 2274 0
-2338 -2337 0
2338 -2274 2337 0
-2339 -2275 0
-2339 -2338 0
2339 2275 2338 0
-2340 2276 0
-2340 2339 0
2340 -2276 -2339 0
-2341 2276 0
-2341 -2340 0
2341 -2276 2340 0
-2342 -2277 0
-2342 -2341 0
2342 2277 2341 0
-2343 2278 0
-2343 2342 0
2343 -2278 -2342 0
-2344 2278 0
-2344 -2343 0
2344 -2278 2343 0
-2345 -2279 0
-2345 -2344 0
2345 2279 2344 0
-2346 2280 0
-2346 2345 0
2346 -2280 -2345 0
-2347 2280 0
-2347 -2346 0
2347 -2280 2346 0
-2348 -2281 0
-2348 -2347 0
2348 2281 2347 0
-2349 2282 0
-2349 2348 0
2349 -2282 -2348 0
-2350 2282 0
-2350 -2349 0
2350 -2282 2349 0
-2351 -2283 0
-2351 -2350 0
2351 2283 2350 0
-2352 2284 0
-2352 2351 0
2352 -2284 -2351 0
-2353 2284 0
-2353 -2352 0
2353 -2284 2352 0
-2354 -2285 0
-2354 -2353 0
2354 2285 2353 0
-2355 2286 0
-2355 2354 0
2355 -2286 -2354 0
-2356 2286 0
-2356 -2355 0
2356 -2286 2355 0
-2357 -2287 0
-2357 -2356 0
2357 2287 2356 0
-2358 2288 0
-2358 2357 0
2358 -2288 -2357 0
-2359 2288 0
-2359 -2358 0
2359 -2288 2358 0
-2360 -2289 0
-2360 -2359 0
2360 2289 2359 0
-2361 2290 0
-2361 2360 0
2361 -2290 -2360 0
-2362 2290 0
-2362 -2361 0
2362 -2290 2361 0
-2363 -2291 0
-2363 -2362 0
2363 2291 2362 0
-2364 2292 0
-2364 2363 0
2364 -2292 -2363 0
-2365 2292 0
-2365 -2364 0
2365 -2292 2364 0
-2366 -2293 0
-2366 -2365 0
2366 2293 2365 0
-2367 2294 0
-2367 2366 0
2367 -2294 -2366 0
-2368 2294 0
-2368 -2367 0
2368 -2294 2367 0
-2369 -2295 0
-2369 -2368 0
2369 2295 2368 0
-2370 2296 0
-2370 2369 0
2370 -2296 -2369 0
-2371 2296 0
-2371 -2370 0
2371 -2296 2370 0
-2372 -2297 0
-2372 -2371 0
2372 2297 2371 0
-2373 2298 0
-2373 2372 0
2373 -2298 -2372 0
-2374 2298 0
-2374 -2373 0
2374 -2298 2373 0
-2375 -2299 0
-2375 -2374 0
2375 2299 2374 0
-2376 2300 0
-2376 2375 0
2376 -2300 -2375 0
-2377 2300 0
-2377 -2376 0
2377 -2300 2376 0
-2378 -2301 0
-2378 -2377 0
2378 2301 2377 0
-2379 2302 0
-2379 2378 0
2379 -2302 -2378 0
-2380 2302 0
-2380 -2379 0
2380 -2302 2379 0
-2381 -2303 0
-2381 -2380 0
2381 2303 2380 0
-2382 2304 0
-2382 2381 0
2382 -2304 -2381 0
-2383 2304 0
-2383 -2382 0
2383 -2304 2382 0
-2384 -2305 0
-2384 -2383 0
2384 2305 2383 0
-2385 2306 0
-2385 2384 0
2385 -2306 -2384 0
-2386 2306 0
-2386 -2385 0
2386 -2306 2385 0
-2387 -2307 0
-2387 -2386 0
2387 2307 2386 0
-2388 2308 0
-2388 2387 0
2388 -2308 -2387 0
-2389 2308 0
-2389 -2388 0
2389 -2308 2388 0
-2390 -2309 0
-2390 -2389 0
2390 2309 2389 0
-2391 2310 0
-2391 2390 0
2391 -2310 -2390 0
-2392 2310 0
-2392 -2391 0
2392 -2310 2391 0
-2393 -2311 0
-2393 -2392 0
2393 2311 2392 0
-2394 2312 0
-2394 2393 0
2394 -2312 -2393 0
-2395 2312 0
-2395 -2394 0
2395 -2312 2394 0
-2396 -2313 0
-2396 -2395 0
2396 2313 2395 0
-2397 2314 0
-2397 2396 0
2397 -2314 -2396 0
-2398 2314 0
-2398 -2397 0
2398 -2314 2397 0
-2399 -2315 0
-2399 -2398 0
2399 2315 2398 0
-2400 2316 0
-2400 2399 0
2400 -2316 -2399 0
-2401 2316 0
-2401 -2400 0
2401 -2316 2400 0
-2402 -2317 0
-2402 -2401 0
2402 2317 2401 0
-2403 2318 0
-2403 2402 0
2403 -2318 -2402 0
-2404 2318 0
-2404 -2403 0
2404 -2318 2403 0
-2405 -2319 0
-2405 -2404 0
2405 2319 2404 0
-2406 2320 0
-2406 2405 0
2406 -2320 -2405 0
-2407 2320 0
-2407 -2406 0
2407 -2320 2406 0
-2408 -2321 0
-2408 -2407 0
2408 2321 2407 0
-2409 2322 0
-2409 2408 0
2409 -2322 -2408 0
-2410 2322 0
-2410 -2409 0
2410 -2322 2409 0
-2411 -2323 0
-2411 -2410 0
2411 2323 2410 0
-2412 2324 0
-2412 2411 0
2412 -2324 -2411 0
-2413 2324 0
-2413 -2412 0
2413 -2324 2412 0
-2414 -2325 0
-2414 -2413 0
2414 2325 2413 0
-2415 2326 0
-2415 2414 0
2415 -2326 -2414 0
-2416 2326 0
-2416 -2415 0
2416 -2326 2415 0
-2417 -2327 0
-2417 -2416 0
2417 2327 2416 0
-2418 2328 0
-2418 2417 0
2418 -2328 -2417 0
-2419 2328 0
-2419 -2418 0
2419 -2328 2418 0
-2420 -2329 0
-2420 -2419 0
2420 2329 2419 0
-2421 2330 0
-2421 2420 0
2421 -2330 -2420 0
-2422 2330 0
-2422 -2421 0
2422 -2330 2421 0
-2423 -2331 0
-2423 -2422 0
2423 2331 2422 0
-2424 2332 0
-2424 2423 0
2424 -2332 -2423 0
-2425 2332 0
-2425 -2424 0
2425 -2332 2424 0
-2426 -2333 0
-2426 -2425 0
2426 2333 2425 0
-2427 2334 0
-2427 2426 0
2427 -2334 -2426 0
-2428 2334 0
-2428 -2427 0
2428 -2334 2427 0
-2429 -2335 0
-2429 -2428 0
2429 2335 2428 0
-2430 2272 0
-2430 -2429 0
2430 -2272 2429 0
-2431 2271 0
-2431 -2430 0
2431 -2271 2430 0
2432 -7033 0
-2432 7033 0
-2433 2431 0
-2433 2432 0
2433 -2431 -2432 0
2497 -7097 0
-2497 7097 0
2496 -7096 0
-2496 7096 0
2495 -7095 0
-2495 7095 0
2494 -7094 0
-2494 7094 0
2493 -7093 0
-2493 7093 0
2492 -7092 0
-2492 7092 0
2491 -7091 0
-2491 7091 0
2490 -7090 0
-2490 7090 0
2489 -7089 0
-2489 7089 0
2488 -7088 0
-2488 7088 0
2487 -7087 0
-2487 7087 0
2486 -7086 0
-2486 7086 0
2485 -7085 0
-2485 7085 0
2484 -7084 0
-2484 7084 0
2483 -7083 0
-2483 7083 0
2482 -7082 0
-2482 7082 0
2481 -7081 0
-2481 7081 0
2480 -7080 0
-2480 7080 0
2479 -7079 0
-2479 7079 0
2478 -7078 0
-2478 7078 0
2477 -7077 0
-2477 7077 0
2476 -7076 0
-2476 7076 0
2475 -7075 0
-2475 7075 0
2474 -7074 0
-2474 7074 0
2473 -7073 0
-2473 7073 0
2472 -7072 0
-2472 7072 0
2471 -7071 0
-2471 7071 0
2470 -7070 0
-2470 7070 0
2469 -7069 0
-2469 7069 0
2468 -7068 0
-2468 7068 0
2467 -7067 0
-2467 7067 0
2466 -7066 0
-2466 7066 0
2465 -7065 0
-2465 7065 0
2464 -7064 0
-2464 7064 0
2463 -7063 0
-2463 7063 0
2462 -7062 0
-2462 7062 0
2461 -7061 0
-2461 7061 0
2460 -7060 0
-2460 7060 0
2459 -7059 0
-2459 7059 0
2458 -7058 0
-2458 7058 0
2457 -7057 0
-2457 7057 0
2456 -7056 0
-2456 7056 0
2455 -7055 0
-2455 7055 0
2454 -7054 0
-2454 7054 0
2453 -7053 0
-2453 7053 0
2452 -7052 0
-2452 7052 0
2451 -7051 0
-2451 7051 0
2450 -7050 0
-2450 7050 0
2449 -7049 0
-2449 7049 0
2448 -7048 0
-2448 7048 0
2447 -7047 0
-2447 7047 0
2446 -7046 0
-2446 7046 0
2445 -7045 0
-2445 7045 0
2444 -7044 0
-2444 7044 0
2443 -7043 0
-2443 7043 0
2442 -7042 0
-2442 7042 0
2441 -7041 0
-2441 7041 0
2440 -7040 0
-2440 7040 0
2439 -7039 0
-2439 7039 0
2438 -7038 0
-2438 7038 0
2437 -7037 0
-2437 7037 0
2436 -7036 0
-2436 7036 0
2435 -7035 0
-2435 7035 0
-2498 -2434 0
-2498 -2435 0
2498 2434 2435 0
-2499 2436 0
-2499 2498 0
2499 -2436 -2498 0
-2500 2436 0
-2500 -2499 0
2500 -2436 2499 0
-2501 -2437 0
-2501 -2500 0
2501 2437 2500 0
-2502 2438 0
-2502 2501 0
2502 -2438 -2501 0
-2503 2438 0
-2503 -2502 0
2503 -2438 2502 0
-2504 -2439 0
-2504 -2503 0
2504 2439 2503 0
-2505 2440 0
-2505 2504 0
2505 -2440 -2504 0
-2506 2440 0
-2506 -2505 0
2506 -2440 2505 0
-2507 -2441 0
-2507 -2506 0
2507 2441 2506 0
-2508 2442 0
-2508 2507 0
2508 -2442 -2507 0
-2509 2442 0
-2509 -2508 0
2509 -2442 2508 0
-2510 -2443 0
-2510 -2509 0
2510 2443 2509 0
-2511 2444 0
-2511 2510 0
2511 -2444 -2510 0
-2512 2444 0
-2512 -2511 0
2512 -2444 2511 0
-2513 -2445 0
-2513 -2512 0
2513 2445 2512 0
-2514 2446 0
-2514 2513 0
2514 -2446 -2513 0
-2515 2446 0
-2515 -2514 0
2515 -2446 2514 0
-2516 -2447 0
-2516 -2515 0
2516 2447 2515 0
-2517 2448 0
-2517 2516 0
2517 -2448 -2516 0
-2518 2448 0
-2518 -2517 0
2518 -2448 2517 0
-2519 -2449 0
-2519 -2518 0
2519 2449 2518 0
-2520 2450 0
-2520 2519 0
2520 -2450 -2519 0
-2521 2450 0
-2521 -2520 0
2521 -2450 2520 0
-2522 -2451 0
-2522 -2521 0
2522 2451 2521 0
-2523 2452 0
-2523 2522 0
2523 -2452 -2522 0
-2524 2452 0
-2524 -2523 0
2524 -2452 2523 0
-2525 -2453 0
-2525 -2524 0
2525 2453 2524 0
-2526 2454 0
-2526 2525 0
2526 -2454 -2525 0
-2527 2454 0
-2527 -2526 0
2527 -2454 2526 0
-2528 -2455 0
-2528 -2527 0
2528 2455 2527 0
-2529 2456 0
-2529 2528 0
2529 -2456 -2528 0
-2530 2456 0
-2530 -2529 0
2530 -2456 2529 0
-2531 -2457 0
-2531 -2530 0
2531 2457 2530 0
-2532 2458 0
-2532 2531 0
2532 -2458 -2531 0
-2533 2458 0
-2533 -2532 0
2533 -2458 2532 0
-2534 -2459 0
-2534 -2533 0
2534 2459 2533 0
-2535 2460 0
-2535 2534 0
2535 -2460 -2534 0
-2536 2460 0
-2536 -2535 0
2536 -2460 2535 0
-2537 -2461 0
-2537 -2536 0
2537 2461 2536 0
-2538 2462 0
-2538 2537 0
2538 -2462 -2537 0
-2539 2462 0
-2539 -2538 0
2539 -2462 2538 0
-2540 -2463 0
-2540 -2539 0
2540 2463 2539 0
-2541 2464 0
-2541 2540 0
2541 -2464 -2540 0
-2542 2464 0
-2542 -2541 0
2542 -2464 2541 0
-2543 -2465 0
-2543 -2542 0
2543 2465 2542 0
-2544 2466 0
-2544 2543 0
2544 -2466 -2543 0
-2545 2466 0
-2545 -2544 0
2545 -2466 2544 0
-2546 -2467 0
-2546 -2545 0
2546 2467 2545 0
-2547 2468 0
-2547 2546 0
2547 -2468 -2546 0
-2548 2468 0
-2548 -2547 0
2548 -2468 2547 0
-2549 -2469 0
-2549 -2548 0
2549 2469 2548 0
-2550 2470 0
-2550 2549 0
2550 -2470 -2549 0
-2551 2470 0
-2551 -2550 0
2551 -2470 2550 0
-2552 -2471 0
-2552 -2551 0
2552 2471 2551 0
-2553 2472 0
-2553 2552 0
2553 -2472 -2552 0
-2554 2472 0
-2554 -2553 0
2554 -2472 2553 0
-2555 -2473 0
-2555 -2554 0
2555 2473 2554 0
-2556 2474 0
-2556 2555 0
2556 -2474 -2555 0
-2557 2474 0
-2557 -2556 0
2557 -2474 2556 0
-2558 -2475 0
-2558 -2557 0
2558 2475 2557 0
-2559 2476 0
-2559 2558 0
2559 -2476 -2558 0
-2560 2476 0
-2560 -2559 0
2560 -2476 2559 0
-2561 -2477 0
-2561 -2560 0
2561 2477 2560 0
-2562 2478 0
-2562 2561 0
2562 -2478 -2561 0
-2563 2478 0
-2563 -2562 0
2563 -2478 2562 0
-2564 -2479 0
-2564 -2563 0
2564 2479 2563 0
-2565 2480 0
-2565 2564 0
2565 -2480 -2564 0
-2566 2480 0
-2566 -2565 0
2566 -2480 2565 0
-2567 -2481 0
-2567 -2566 0
2567 2481 2566 0
-2568 2482 0
-2568 2567 0
2568 -2482 -2567 0
-2569 2482 0
-2569 -2568 0
2569 -2482 2568 0
-2570 -2483 0
-2570 -2569 0
2570 2483 2569 0
-2571 2484 0
-2571 2570 0
2571 -2484 -2570 0
-2572 2484 0
-2572 -2571 0
2572 -2484 2571 0
-2573 -2485 0
-2573 -2572 0
2573 2485 2572 0
-2574 2486 0
-2574 2573 0
2574 -2486 -2573 0
-2575 2486 0
-2575 -2574 0
2575 -2486 2574 0
-2576 -2487 0
-2576 -2575 0
2576 2487 2575 0
-2577 2488 0
-2577 2576 0
2577 -2488 -2576 0
-2578 2488 0
-2578 -2577 0
2578 -2488 2577 0
-2579 -2489 0
-2579 -2578 0
2579 2489 2578 0
-2580 2490 0
-2580 2579 0
2580 -2490 -2579 0
-2581 2490 0
-2581 -2580 0
2581 -2490 2580 0
-2582 -2491 0
-2582 -2581 0
2582 2491 2581 0
-2583 2492 0
-2583 2582 0
2583 -2492 -2582 0
-2584 2492 0
-2584 -2583 0
2584 -2492 2583 0
-2585 -2493 0
-2585 -2584 0
2585 2493 2584 0
-2586 2494 0
-2586 2585 0
2586 -2494 -2585 0
-2587 2494 0
-2587 -2586 0
2587 -2494 2586 0
-2588 -2495 0
-2588 -2587 0
2588 2495 2587 0
-2589 2496 0
-2589 2588 0
2589 -2496 -2588 0
-2590 2496 0
-2590 -2589 0
2590 -2496 2589 0
-2591 -2497 0
-2591 -2590 0
2591 2497 2590 0
-2592 2434 0
-2592 -2591 0
2592 -2434 2591 0
-2593 2433 0
-2593 -2592 0
2593 -2433 2592 0
2594 -7098 0
-2594 7098 0
-2595 2593 0
-2595 2594 0
2595 -2593 -2594 0
2659 -7162 0
-2659 7162 0
2658 -7161 0
-2658 7161 0
2657 -7160 0
-2657 7160 0
2656 -7159 0
-2656 7159 0
2655 -7158 0
-2655 7158 0
2654 -7157 0
-2654 7157 0
2653 -7156 0
-2653 7156 0
2652 -7155 0
-2652 7155 0
2651 -7154 0
-2651 7154 0
2650 -7153 0
-2650 7153 0
2649 -7152 0
-2649 7152 0
2648 -7151 0
-2648 7151 0
2647 -7150 0
-2647 7150 0
2646 -7149 0
-2646 7149 0
2645 -7148 0
-2645 7148 0
2644 -7147 0
-2644 7147 0
2643 -7146 0
-2643 7146 0
2642 -7145 0
-2642 7145 0
2641 -7144 0
-2641 7144 0
2640 -7143 0
-2640 7143 0
2639 -7142 0
-2639 7142 0
2638 -7141 0
-2638 7141 0
2637 -7140 0
-2637 7140 0
2636 -7139 0
-2636 7139 0
2635 -7138 0
-2635 7138 0
2634 -7137 0
-2634 7137 0
2633 -7136 0
-2633 7136 0
2632 -7135 0
-2632 7135 0
2631 -7134 0
-2631 7134 0
2630 -7133 0
-2630 7133 0
2629 -7132 0
-2629 7132 0
2628 -7131 0
-2628 7131 0
2627 -7130 0
-2627 7130 0
2626 -7129 0
-2626 7129 0
2625 -7128 0
-2625 7128 0
2624 -7127 0
-2624 7127 0
2623 -7126 0
-2623 7126 0
2622 -7125 0
-2622 7125 0
2621 -7124 0
-2621 7124 0
2620 -7123 0
-2620 7123 0
2619 -7122 0
-2619 7122 0
2618 -7121 0
-2618 7121 0
2617 -7120 0
-2617 7120 0
2616 -7119 0
-2616 7119 0
2615 -7118 0
-2615 7118 0
2614 -7117 0
-2614 7117 0
2613 -7116 0
-2613 7116 0
2612 -7115 0
-2612 7115 0
2611 -7114 0
-2611 7114 0
2610 -7113 0
-2610 7113 0
2609 -7112 0
-2609 7112 0
2608 -7111 0
-2608 7111 0
2607 -7110 0
-2607 7110 0
2606 -7109 0
-2606 7109 0
2605 -7108 0
-2605 7108 0
2604 -7107 0
-2604 7107 0
2603 -7106 0
-2603 7106 0
2602 -7105 0
-2602 7105 0
2601 -7104 0
-2601 7104 0
2600 -7103 0
-2600 7103 0
2599 -7102 0
-2599 7102 0
2598 -7101 0
-2598 7101 0
2597 -7100 0
-2597 7100 0
-2660 -2596 0
-2660 -2597 0
2660 2596 2597 0
-2661 2598 0
-2661 2660 0
2661 -2598 -2660 0
-2662 2598 0
-2662 -2661 0
2662 -2598 2661 0
-2663 -2599 0
-2663 -2662 0
2663 2599 2662 0
-2664 2600 0
-2664 2663 0
2664 -2600 -2663 0
-2665 2600 0
-2665 -2664 0
2665 -2600 2664 0
-2666 -2601 0
-2666 -2665 0
2666 2601 2665 0
-2667 2602 0
-2667 2666 0
2667 -2602 -2666 0
-2668 2602 0
-2668 -2667 0
2668 -2602 2667 0
-2669 -2603 0
-2669 -2668 0
2669 2603 2668 0
-2670 2604 0
-2670 2669 0
2670 -2604 -2669 0
-2671 2604 0
-2671 -2670 0
2671 -2604 2670 0
-2672 -2605 0
-2672 -2671 0
2672 2605 2671 0
-2673 2606 0
-2673 2672 0
2673 -2606 -2672 0
-2674 2606 0
-2674 -2673 0
2674 -2606 2673 0
-2675 -2607 0
-2675 -2674 0
2675 2607 2674 0
-2676 2608 0
-2676 2675 0
2676 -2608 -2675 0
-2677 2608 0
-2677 -2676 0
2677 -2608 2676 0
-2678 -2609 0
-2678 -2677 0
2678 2609 2677 0
-2679 2610 0
-2679 2678 0
2679 -2610 -2678 0
-2680 2610 0
-2680 -2679 0
2680 -2610 2679 0
-2681 -2611 0
-2681 -2680 0
2681 2611 2680 0
-2682 2612 0
-2682 2681 0
2682 -2612 -2681 0
-2683 2612 0
-2683 -2682 0
2683 -2612 2682 0
-2684 -2613 0
-2684 -2683 0
2684 2613 2683 0
-2685 2614 0
-2685 2684 0
2685 -2614 -2684 0
-2686 2614 0
-2686 -2685 0
2686 -2614 2685 0
-2687 -2615 0
-2687 -2686 0
2687 2615 2686 0
-2688 2616 0
-2688 2687 0
2688 -2616 -2687 0
-2689 2616 0
-2689 -2688 0
2689 -2616 2688 0
-2690 -2617 0
-2690 -2689 0
2690 2617 2689 0
-2691 2618 0
-2691 2690 0
2691 -2618 -2690 0
-2692 2618 0
-2692 -2691 0
2692 -2618 2691 0
-2693 -2619 0
-2693 -2692 0
2693 2619 2692 0
-2694 2620 0
-2694 2693 0
2694 -2620 -2693 0
-2695 2620 0
-2695 -2694 0
2695 -2620 2694 0
-2696 -2621 0
-2696 -2695 0
2696 2621 2695 0
-2697 2622 0
-2697 2696 0
2697 -2622 -2696 0
-2698 2622 0
-2698 -2697 0
2698 -2622 2697 0
-2699 -2623 0
-2699 -2698 0
2699 2623 2698 0
-2700 2624 0
-2700 2699 0
2700 -2624 -2699 0
-2701 2624 0
-2701 -2700 0
2701 -2624 2700 0
-2702 -2625 0
-2702 -2701 0
2702 2625 2701 0
-2703 2626 0
-2703 2702 0
2703 -2626 -2702 0
-2704 2626 0
-2704 -2703 0
2704 -2626 2703 0
-2705 -2627 0
-2705 -2704 0
2705 2627 2704 0
-2706 2628 0
-2706 2705 0
2706 -2628 -2705 0
-2707 2628 0
-2707 -2706 0
2707 -2628 2706 0
-2708 -2629 0
-2708 -2707 0
2708 2629 2707 0
-2709 2630 0
-2709 2708 0
2709 -2630 -2708 0
-2710 2630 0
-2710 -2709 0
2710 -2630 2709 0
-2711 -2631 0
-2711 -2710 0
2711 2631 2710 0
-2712 2632 0
-2712 2711 0
2712 -2632 -2711 0
-2713 2632 0
-2713 -2712 0
2713 -2632 2712 0
-2714 -2633 0
-2714 -2713 0
2714 2633 2713 0
-2715 2634 0
-2715 2714 0
2715 -2634 -2714 0
-2716 2634 0
-2716 -2715 0
2716 -2634 2715 0
-2717 -2635 0
-2717 -2716 0
2717 2635 2716 0
-2718 2636 0
-2718 2717 0
2718 -2636 -2717 0
-2719 2636 0
-2719 -2718 0
2719 -2636 2718 0
-2720 -2637 0
-2720 -2719 0
2720 2637 2719 0
-2721 2638 0
-2721 2720 0
2721 -2638 -2720 0
-2722 2638 0
-2722 -2721 0
2722 -2638 2721 0
-2723 -2639 0
-2723 -2722 0
2723 2639 2722 0
-2724 2640 0
-2724 2723 0
2724 -2640 -2723 0
-2725 2640 0
-2725 -2724 0
2725 -2640 2724 0
-2726 -2641 0
-2726 -2725 0
2726 2641 2725 0
-2727 2642 0
-2727 2726 0
2727 -2642 -2726 0
-2728 2642 0
-2728 -2727 0
2728 -2642 2727 0
-2729 -2643 0
-2729 -2728 0
2729 2643 2728 0
-2730 2644 0
-2730 2729 0
2730 -2644 -2729 0
-2731 2644 0
-2731 -2730 0
2731 -2644 2730 0
-2732 -2645 0
-2732 -2731 0
2732 2645 2731 0
-2733 2646 0
-2733 2732 0
2733 -2646 -2732 0
-2734 2646 0
-2734 -2733 0
2734 -2646 2733 0
-2735 -2647 0
-2735 -2734 0
2735 2647 2734 0
-2736 2648 0
-2736 2735 0
2736 -2648 -2735 0
-2737 2648 0
-2737 -2736 0
2737 -2648 2736 0
-2738 -2649 0
-2738 -2737 0
2738 2649 2737 0
-2739 2650 0
-2739 2738 0
2739 -2650 -2738 0
-2740 2650 0
-2740 -2739 0
2740 -2650 2739 0
-2741 -2651 0
-2741 -2740 0
2741 2651 2740 0
-2742 2652 0
-2742 2741 0
2742 -2652 -2741 0
-2743 2652 0
-2743 -2742 0
2743 -2652 2742 0
-2744 -2653 0
-2744 -2743 0
2744 2653 2743 0
-2745 2654 0
-2745 2744 0
2745 -2654 -2744 0
-2746 2654 0
-2746 -2745 0
2746 -2654 2745 0
-2747 -2655 0
-2747 -2746 0
2747 2655 2746 0
-2748 2656 0
-2748 2747 0
2748 -2656 -2747 0
-2749 2656 0
-2749 -2748 0
2749 -2656 2748 0
-2750 -2657 0
-2750 -2749 0
2750 2657 2749 0
-2751 2658 0
-2751 2750 0
2751 -2658 -2750 0
-2752 2658 0
-2752 -2751 0
2752 -2658 2751 0
-2753 -2659 0
-2753 -2752 0
2753 2659 2752 0
-2754 2596 0
-2754 -2753 0
2754 -2596 2753 0
-2755 2595 0
-2755 -2754 0
2755 -2595 2754 0
2756 -7163 0
-2756 7163 0
-2757 2755 0
-2757 2756 0
2757 -2755 -2756 0
2821 -7227 0
-2821 7227 0
2820 -7226 0
-2820 7226 0
2819 -7225 0
-2819 7225 0
2818 -7224 0
-2818 7224 0
2817 -7223 0
-2817 7223 0
2816 -7222 0
-2816 7222 0
2815 -7221 0
-2815 7221 0
2814 -7220 0
-2814 7220 0
2813 -7219 0
-2813 7219 0
2812 -7218 0
-2812 7218 0
2811 -7217 0
-2811 7217 0
2810 -7216 0
-2810 7216 0
2809 -7215 0
-2809 7215 0
2808 -7214 0
-2808 7214 0
2807 -7213 0
-2807 7213 0
2806 -7212 0
-2806 7212 0
2805 -7211 0
-2805 7211 0
2804 -7210 0
-2804 7210 0
2803 -7209 0
-2803 7209 0
2802 -7208 0
-2802 7208 0
2801 -7207 0
-2801 7207 0
2800 -7206 0
-2800 7206 0
2799 -7205 0
-2799 7205 0
2798 -7204 0
-2798 7204 0
2797 -7203 0
-2797 7203 0
2796 -7202 0
-2796 7202 0
2795 -7201 0
-2795 7201 0
2794 -7200 0
-2794 7200 0
2793 -7199 0
-2793 7199 0
2792 -7198 0
-2792 7198 0
2791 -7197 0
-2791 7197 0
2790 -7196 0
-2790 7196 0
2789 -7195 0
-2789 7195 0
2788 -7194 0
-2788 7194 0
2787 -7193 0
-2787 7193 0
2786 -7192 0
-2786 7192 0
2785 -7191 0
-2785 7191 0
2784 -7190 0
-2784 7190 0
2783 -7189 0
-2783 7189 0
2782 -7188 0
-2782 7188 0
2781 -7187 0
-2781 7187 0
2780 -7186 0
-2780 7186 0
2779 -7185 0
-2779 7185 0
2778 -7184 0
-2778 7184 0
2777 -7183 0
-2777 7183 0
2776 -7182 0
-2776 7182 0
2775 -7181 0
-2775 7181 0
2774 -7180 0
-2774 7180 0
2773 -7179 0
-2773 7179 0
2772 -7178 0
-2772 7178 0
2771 -7177 0
-2771 7177 0
2770 -7176 0
-2770 7176 0
2769 -7175 0
-2769 7175 0
2768 -7174 0
-2768 7174 0
2767 -7173 0
-2767 7173 0
2766 -7172 0
-2766 7172 0
2765 -7171 0
-2765 7171 0
2764 -7170 0
-2764 7170 0
2763 -7169 0
-2763 7169 0
2762 -7168 0
-2762 7168 0
2761 -7167 0
-2761 7167 0
2760 -7166 0
-2760 7166 0
2759 -7165 0
-2759 7165 0
-2822 -2758 0
-2822 -2759 0
2822 2758 2759 0
-2823 2760 0
-2823 2822 0
2823 -2760 -2822 0
-2824 2760 0
-2824 -2823 0
2824 -2760 2823 0
-2825 -2761 0
-2825 -2824 0
2825 2761 2824 0
-2826 2762 0
-2826 2825 0
2826 -2762 -2825 0
-2827 2762 0
-2827 -2826 0
2827 -2762 2826 0
-2828 -2763 0
-2828 -2827 0
2828 2763 2827 0
-2829 2764 0
-2829 2828 0
2829 -2764 -2828 0
-2830 2764 0
-2830 -2829 0
2830 -2764 2829 0
-2831 -2765 0
-2831 -2830 0
2831 2765 2830 0
-2832 2766 0
-2832 2831 0
2832 -2766 -2831 0
-2833 2766 0
-2833 -2832 0
2833 -2766 2832 0
-2834 -2767 0
-2834 -2833 0
2834 2767 2833 0
-2835 2768 0
-2835 2834 0
2835 -2768 -2834 0
-2836 2768 0
-2836 -2835 0
2836 -2768 2835 0
-2837 -2769 0
-2837 -2836 0
2837 2769 2836 0
-2838 2770 0
-2838 2837 0
2838 -2770 -2837 0
-2839 2770 0
-2839 -2838 0
2839 -2770 2838 0
-2840 -2771 0
-2840 -2839 0
2840 2771 2839 0
-2841 2772 0
-2841 2840 0
2841 -2772 -2840 0
-2842 2772 0
-2842 -2841 0
2842 -2772 2841 0
-2843 -2773 0
-2843 -2842 0
2843 2773 2842 0
-2844 2774 0
-2844 2843 0
2844 -2774 -2843 0
-2845 2774 0
-2845 -2844 0
2845 -2774 2844 0
-2846 -2775 0
-2846 -2845 0
2846 2775 2845 0
-2847 2776 0
-2847 2846 0
2847 -2776 -2846 0
-2848 2776 0
-2848 -2847 0
2848 -2776 2847 0
-2849 -2777 0
-2849 -2848 0
2849 2777 2848 0
-2850 2778 0
-2850 2849 0
2850 -2778 -2849 0
-2851 2778 0
-2851 -2850 0
2851 -2778 2850 0
-2852 -2779 0
-2852 -2851 0
2852 2779 2851 0
-2853 2780 0
-2853 2852 0
2853 -2780 -2852 0
-2854 2780 0
-2854 -2853 0
2854 -2780 2853 0
-2855 -2781 0
-2855 -2854 0
2855 2781 2854 0
-2856 2782 0
-2856 2855 0
2856 -2782 -2855 0
-2857 2782 0
-2857 -2856 0
2857 -2782 2856 0
-2858 -2783 0
-2858 -2857 0
2858 2783 2857 0
-2859 2784 0
-2859 2858 0
2859 -2784 -2858 0
-2860 2784 0
-2860 -2859 0
2860 -2784 2859 0
-2861 -2785 0
-2861 -2860 0
2861 2785 2860 0
-2862 2786 0
-2862 2861 0
2862 -2786 -2861 0
-2863 2786 0
-2863 -2862 0
2863 -2786 2862 0
-2864 -2787 0
-2864 -2863 0
2864 2787 2863 0
-2865 2788 0
-2865 2864 0
2865 -2788 -2864 0
-2866 2788 0
-2866 -2865 0
2866 -2788 2865 0
-2867 -2789 0
-2867 -2866 0
2867 2789 2866 0
-2868 2790 0
-2868 2867 0
2868 -2790 -2867 0
-2869 2790 0
-2869 -2868 0
2869 -2790 2868 0
-2870 -2791 0
-2870 -2869 0
2870 2791 2869 0
-2871 2792 0
-2871 2870 0
2871 -2792 -2870 0
-2872 2792 0
-2872 -2871 0
2872 -2792 2871 0
-2873 -2793 0
-2873 -2872 0
2873 2793 2872 0
-2874 2794 0
-2874 2873 0
2874 -2794 -2873 0
-2875 2794 0
-2875 -2874 0
2875 -2794 2874 0
-2876 -2795 0
-2876 -2875 0
2876 2795 2875 0
-2877 2796 0
-2877 2876 0
2877 -2796 -2876 0
-2878 2796 0
-2878 -2877 0
2878 -2796 2877 0
-2879 -2797 0
-2879 -2878 0
2879 2797 2878 0
-2880 2798 0
-2880 2879 0
2880 -2798 -2879 0
-2881 2798 0
-2881 -2880 0
2881 -2798 2880 0
-2882 -2799 0
-2882 -2881 0
2882 2799 2881 0
-2883 2800 0
-2883 2882 0
2883 -2800 -2882 0
-2884 2800 0
-2884 -2883 0
2884 -2800 2883 0
-2885 -2801 0
-2885 -2884 0
2885 2801 2884 0
-2886 2802 0
-2886 2885 0
2886 -2802 -2885 0
-2887 2802 0
-2887 -2886 0
2887 -2802 2886 0
-2888 -2803 0
-2888 -2887 0
2888 2803 2887 0
-2889 2804 0
-2889 2888 0
2889 -2804 -2888 0
-2890 2804 0
-2890 -2889 0
2890 -2804 2889 0
-2891 -2805 0
-2891 -2890 0
2891 2805 2890 0
-2892 2806 0
-2892 2891 0
2892 -2806 -2891 0
-2893 2806 0
-2893 -2892 0
2893 -2806 2892 0
-2894 -2807 0
-2894 -2893 0
2894 2807 2893 0
-2895 2808 0
-2895 2894 0
2895 -2808 -2894 0
-2896 2808 0
-2896 -2895 0
2896 -2808 2895 0
-2897 -2809 0
-2897 -2896 0
2897 2809 2896 0
-2898 2810 0
-2898 2897 0
2898 -2810 -2897 0
-2899 2810 0
-2899 -2898 0
2899 -2810 2898 0
-2900 -2811 0
-2900 -2899 0
2900 2811 2899 0
-2901 2812 0
-2901 2900 0
2901 -2812 -2900 0
-2902 2812 0
-2902 -2901 0
2902 -2812 2901 0
-2903 -2813 0
-2903 -2902 0
2903 2813 2902 0
-2904 2814 0
-2904 2903 0
2904 -2814 -2903 0
-2905 2814 0
-2905 -2904 0
2905 -2814 2904 0
-2906 -2815 0
-2906 -2905 0
2906 2815 2905 0
-2907 2816 0
-2907 2906 0
2907 -2816 -2906 0
-2908 2816 0
-2908 -2907 0
2908 -2816 2907 0
-2909 -2817 0
-2909 -2908 0
2909 2817 2908 0
-2910 2818 0
-2910 2909 0
2910 -2818 -2909 0
-2911 2818 0
-2911 -2910 0
2911 -2818 2910 0
-2912 -2819 0
-2912 -2911 0
2912 2819 2911 0
-2913 2820 0
-2913 2912 0
2913 -2820 -2912 0
-2914 2820 0
-2914 -2913 0
2914 -2820 2913 0
-2915 -2821 0
-2915 -2914 0
2915 2821 2914 0
-2916 2758 0
-2916 -2915 0
2916 -2758 2915 0
-2917 2757 0
-2917 -2916 0
2917 -2757 2916 0
2918 -7228 0
-2918 7228 0
-2919 2917 0
-2919 2918 0
2919 -2917 -2918 0
2983 -7292 0
-2983 7292 0
2982 -7291 0
-2982 7291 0
2981 -7290 0
-2981 7290 0
2980 -7289 0
-2980 7289 0
2979 -7288 0
-2979 7288 0
2978 -7287 0
-2978 7287 0
2977 -7286 0
-2977 7286 0
2976 -7285 0
-2976 7285 0
2975 -7284 0
-2975 7284 0
2974 -7283 0
-2974 7283 0
2973 -7282 0
-2973 7282 0
2972 -7281 0
-2972 7281 0
2971 -7280 0
-2971 7280 0
2970 -7279 0
-2970 7279 0
2969 -7278 0
-2969 7278 0
2968 -7277 0
-2968 7277 0
2967 -7276 0
-2967 7276 0
2966 -7275 0
-2966 7275 0
2965 -7274 0
-2965 7274 0
2964 -7273 0
-2964 7273 0
2963 -7272 0
-2963 7272 0
2962 -7271 0
-2962 7271 0
2961 -7270 0
-2961 7270 0
2960 -7269 0
-2960 7269 0
2959 -7268 0
-2959 7268 0
2958 -7267 0
-2958 7267 0
2957 -7266 0
-2957 7266 0
2956 -7265 0
-2956 7265 0
2955 -7264 0
-2955 7264 0
2954 -7263 0
-2954 7263 0
2953 -7262 0
-2953 7262 0
2952 -7261 0
-2952 7261 0
2951 -7260 0
-2951 7260 0
2950 -7259 0
-2950 7259 0
2949 -7258 0
-2949 7258 0
2948 -7257 0
-2948 7257 0
2947 -7256 0
-2947 7256 0
2946 -7255 0
-2946 7255 0
2945 -7254 0
-2945 7254 0
2944 -7253 0
-2944 7253 0
2943 -7252 0
-2943 7252 0
2942 -7251 0
-2942 7251 0
2941 -7250 0
-2941 7250 0
2940 -7249 0
-2940 7249 0
2939 -7248 0
-2939 7248 0
2938 -7247 0
-2938 7247 0
2937 -7246 0
-2937 7246 0
2936 -7245 0
-2936 7245 0
2935 -7244 0
-2935 7244 0
2934 -7243 0
-2934 7243 0
2933 -7242 0
-2933 7242 0
2932 -7241 0
-2932 7241 0
2931 -7240 0
-2931 7240 0
2930 -7239 0
-2930 7239 0
2929 -7238 0
-2929 7238 0
2928 -7237 0
-2928 7237 0
2927 -7236 0
-2927 7236 0
2926 -7235 0
-2926 7235 0
2925 -7234 0
-2925 7234 0
2924 -7233 0
-2924 7233 0
2923 -7232 0
-2923 7232 0
2922 -7231 0
-2922 7231 0
2921 -7230 0
-2921 7230 0
-2984 -2920 0
-2984 -2921 0
2984 2920 2921 0
-2985 2922 0
-2985 2984 0
2985 -2922 -2984 0
-2986 2922 0
-2986 -2985 0
2986 -2922 2985 0
-2987 -2923 0
-2987 -2986 0
2987 2923 2986 0
-2988 2924 0
-2988 2987 0
2988 -2924 -2987 0
-2989 2924 0
-2989 -2988 0
2989 -2924 2988 0
-2990 -2925 0
-2990 -2989 0
2990 2925 2989 0
-2991 2926 0
-2991 2990 0
2991 -2926 -2990 0
-2992 2926 0
-2992 -2991 0
2992 -2926 2991 0
-2993 -2927 0
-2993 -2992 0
2993 2927 2992 0
-2994 2928 0
-2994 2993 0
2994 -2928 -2993 0
-2995 2928 0
-2995 -2994 0
2995 -2928 2994 0
-2996 -2929 0
-2996 -2995 0
2996 2929 2995 0
-2997 2930 0
-2997 2996 0
2997 -2930 -2996 0
-2998 2930 0
-2998 -2997 0
2998 -2930 2997 0
-2999 -2931 0
-2999 -2998 0
2999 2931 2998 0
-3000 2932 0
-3000 2999 0
3000 -2932 -2999 0
-3001 2932 0
-3001 -3000 0
3001 -2932 3000 0
-3002 -2933 0
-3002 -3001 0
3002 2933 3001 0
-3003 2934 0
-3003 3002 0
3003 -2934 -3002 0
-3004 2934 0
-3004 -3003 0
3004 -2934 3003 0
-3005 -2935 0
-3005 -3004 0
3005 2935 3004 0
-3006 2936 0
-3006 3005 0
3006 -2936 -3005 0
-3007 2936 0
-3007 -3006 0
3007 -2936 3006 0
-3008 -2937 0
-3008 -3007 0
3008 2937 3007 0
-3009 2938 0
-3009 3008 0
3009 -2938 -3008 0
-3010 2938 0
-3010 -3009 0
3010 -2938 3009 0
-3011 -2939 0
-3011 -3010 0
3011 2939 3010 0
-3012 2940 0
-3012 3011 0
3012 -2940 -3011 0
-3013 2940 0
-3013 -3012 0
3013 -2940 3012 0
-3014 -2941 0
-3014 -3013 0
3014 2941 3013 0
-3015 2942 0
-3015 3014 0
3015 -2942 -3014 0
-3016 2942 0
-3016 -3015 0
3016 -2942 3015 0
-3017 -2943 0
-3017 -3016 0
3017 2943 3016 0
-3018 2944 0
-3018 3017 0
3018 -2944 -3017 0
-3019 2944 0
-3019 -3018 0
3019 -2944 3018 0
-3020 -2945 0
-3020 -3019 0
3020 2945 3019 0
-3021 2946 0
-3021 3020 0
3021 -2946 -3020 0
-3022 2946 0
-3022 -3021 0
3022 -2946 3021 0
-3023 -2947 0
-3023 -3022 0
3023 2947 3022 0
-3024 2948 0
-3024 3023 0
3024 -2948 -3023 0
-3025 2948 0
-3025 -3024 0
3025 -2948 3024 0
-3026 -2949 0
-3026 -3025 0
3026 2949 3025 0
-3027 2950 0
-3027 3026 0
3027 -2950 -3026 0
-3028 2950 0
-3028 -3027 0
3028 -2950 3027 0
-3029 -2951 0
-3029 -3028 0
3029 2951 3028 0
-3030 2952 0
-3030 3029 0
3030 -2952 -3029 0
-3031 2952 0
-3031 -3030 0
3031 -2952 3030 0
-3032 -2953 0
-3032 -3031 0
3032 2953 3031 0
-3033 2954 0
-3033 3032 0
3033 -2954 -3032 0
-3034 2954 0
-3034 -3033 0
3034 -2954 3033 0
-3035 -2955 0
-3035 -3034 0
3035 2955 3034 0
-3036 2956 0
-3036 3035 0
3036 -2956 -3035 0
-3037 2956 0
-3037 -3036 0
3037 -2956 3036 0
-3038 -2957 0
-3038 -3037 0
3038 2957 3037 0
-3039 2958 0
-3039 3038 0
3039 -2958 -3038 0
-3040 2958 0
-3040 -3039 0
3040 -2958 3039 0
-3041 -2959 0
-3041 -3040 0
3041 2959 3040 0
-3042 2960 0
-3042 3041 0
3042 -2960 -3041 0
-3043 2960 0
-3043 -3042 0
3043 -2960 3042 0
-3044 -2961 0
-3044 -3043 0
3044 2961 3043 0
-3045 2962 0
-3045 3044 0
3045 -2962 -3044 0
-3046 2962 0
-3046 -3045 0
3046 -2962 3045 0
-3047 -2963 0
-3047 -3046 0
3047 2963 3046 0
-3048 2964 0
-3048 3047 0
3048 -2964 -3047 0
-3049 2964 0
-3049 -3048 0
3049 -2964 3048 0
-3050 -2965 0
-3050 -3049 0
3050 2965 3049 0
-3051 2966 0
-3051 3050 0
3051 -2966 -3050 0
-3052 2966 0
-3052 -3051 0
3052 -2966 3051 0
-3053 -2967 0
-3053 -3052 0
3053 2967 3052 0
-3054 2968 0
-3054 3053 0
3054 -2968 -3053 0
-3055 2968 0
-3055 -3054 0
3055 -2968 3054 0
-3056 -2969 0
-3056 -3055 0
3056 2969 3055 0
-3057 2970 0
-3057 3056 0
3057 -2970 -3056 0
-3058 2970 0
-3058 -3057 0
3058 -2970 3057 0
-3059 -2971 0
-3059 -3058 0
3059 2971 3058 0
-3060 2972 0
-3060 3059 0
3060 -2972 -3059 0
-3061 2972 0
-3061 -3060 0
3061 -2972 3060 0
-3062 -2973 0
-3062 -3061 0
3062 2973 3061 0
-3063 2974 0
-3063 3062 0
3063 -2974 -3062 0
-3064 2974 0
-3064 -3063 0
3064 -2974 3063 0
-3065 -2975 0
-3065 -3064 0
3065 2975 3064 0
-3066 2976 0
-3066 3065 0
3066 -2976 -3065 0
-3067 2976 0
-3067 -3066 0
3067 -2976 3066 0
-3068 -2977 0
-3068 -3067 0
3068 2977 3067 0
-3069 2978 0
-3069 3068 0
3069 -2978 -3068 0
-3070 2978 0
-3070 -3069 0
3070 -2978 3069 0
-3071 -2979 0
-3071 -3070 0
3071 2979 3070 0
-3072 2980 0
-3072 3071 0
3072 -2980 -3071 0
-3073 2980 0
-3073 -3072 0
3073 -2980 3072 0
-3074 -2981 0
-3074 -3073 0
3074 2981 3073 0
-3075 2982 0
-3075 3074 0
3075 -2982 -3074 0
-3076 2982 0
-3076 -3075 0
3076 -2982 3075 0
-3077 -2983 0
-3077 -3076 0
3077 2983 3076 0
-3078 2920 0
-3078 -3077 0
3078 -2920 3077 0
-3079 2919 0
-3079 -3078 0
3079 -2919 3078 0
3080 -7293 0
-3080 7293 0
-3081 3079 0
-3081 3080 0
3081 -3079 -3080 0
3145 -7357 0
-3145 7357 0
3144 -7356 0
-3144 7356 0
3143 -7355 0
-3143 7355 0
3142 -7354 0
-3142 7354 0
3141 -7353 0
-3141 7353 0
3140 -7352 0
-3140 7352 0
3139 -7351 0
-3139 7351 0
3138 -7350 0
-3138 7350 0
3137 -7349 0
-3137 7349 0
3136 -7348 0
-3136 7348 0
3135 -7347 0
-3135 7347 0
3134 -7346 0
-3134 7346 0
3133 -7345 0
-3133 7345 0
3132 -7344 0
-3132 7344 0
3131 -7343 0
-3131 7343 0
3130 -7342 0
-3130 7342 0
3129 -7341 0
-3129 7341 0
3128 -7340 0
-3128 7340 0
3127 -7339 0
-3127 7339 0
3126 -7338 0
-3126 7338 0
3125 -7337 0
-3125 7337 0
3124 -7336 0
-3124 7336 0
3123 -7335 0
-3123 7335 0
3122 -7334 0
-3122 7334 0
3121 -7333 0
-3121 7333 0
3120 -7332 0
-3120 7332 0
3119 -7331 0
-3119 7331 0
3118 -7330 0
-3118 7330 0
3117 -7329 0
-3117 7329 0
3116 -7328 0
-3116 7328 0
3115 -7327 0
-3115 7327 0
3114 -7326 0
-3114 7326 0
3113 -7325 0
-3113 7325 0
3112 -7324 0
-3112 7324 0
3111 -7323 0
-3111 7323 0
3110 -7322 0
-3110 7322 0
3109 -7321 0
-3109 7321 0
3108 -7320 0
-3108 7320 0
3107 -7319 0
-3107 7319 0
3106 -7318 0
-3106 7318 0
3105 -7317 0
-3105 7317 0
3104 -7316 0
-3104 7316 0
3103 -7315 0
-3103 7315 0
3102 -7314 0
-3102 7314 0
3101 -7313 0
-3101 7313 0
3100 -7312 0
-3100 7312 0
3099 -7311 0
-3099 7311 0
3098 -7310 0
-3098 7310 0
3097 -7309 0
-3097 7309 0
3096 -7308 0
-3096 7308 0
3095 -7307 0
-3095 7307 0
3094 -7306 0
-3094 7306 0
3093 -7305 0
-3093 7305 0
3092 -7304 0
-3092 7304 0
3091 -7303 0
-3091 7303 0
3090 -7302 0
-3090 7302 0
3089 -7301 0
-3089 7301 0
3088 -7300 0
-3088 7300 0
3087 -7299 0
-3087 7299 0
3086 -7298 0
-3086 7298 0
3085 -7297 0
-3085 7297 0
3084 -7296 0
-3084 7296 0
3083 -7295 0
-3083 7295 0
-3146 -3082 0
-3146 -3083 0
3146 3082 3083 0
-3147 3084 0
-3147 3146 0
3147 -3084 -3146 0
-3148 3084 0
-3148 -3147 0
3148 -3084 3147 0
-3149 -3085 0
-3149 -3148 0
3149 3085 3148 0
-3150 3086 0
-3150 3149 0
3150 -3086 -3149 0
-3151 3086 0
-3151 -3150 0
3151 -3086 3150 0
-3152 -3087 0
-3152 -3151 0
3152 3087 3151 0
-3153 3088 0
-3153 3152 0
3153 -3088 -3152 0
-3154 3088 0
-3154 -3153 0
3154 -3088 3153 0
-3155 -3089 0
-3155 -3154 0
3155 3089 3154 0
-3156 3090 0
-3156 3155 0
3156 -3090 -3155 0
-3157 3090 0
-3157 -3156 0
3157 -3090 3156 0
-3158 -3091 0
-3158 -3157 0
3158 3091 3157 0
-3159 3092 0
-3159 3158 0
3159 -3092 -3158 0
-3160 3092 0
-3160 -3159 0
3160 -3092 3159 0
-3161 -3093 0
-3161 -3160 0
3161 3093 3160 0
-3162 3094 0
-3162 3161 0
3162 -3094 -3161 0
-3163 3094 0
-3163 -3162 0
3163 -3094 3162 0
-3164 -3095 0
-3164 -3163 0
3164 3095 3163 0
-3165 3096 0
-3165 3164 0
3165 -3096 -3164 0
-3166 3096 0
-3166 -3165 0
3166 -3096 3165 0
-3167 -3097 0
-3167 -3166 0
3167 3097 3166 0
-3168 3098 0
-3168 3167 0
3168 -3098 -3167 0
-3169 3098 0
-3169 -3168 0
3169 -3098 3168 0
-3170 -3099 0
-3170 -3169 0
3170 3099 3169 0
-3171 3100 0
-3171 3170 0
3171 -3100 -3170 0
-3172 3100 0
-3172 -3171 0
3172 -3100 3171 0
-3173 -3101 0
-3173 -3172 0
3173 3101 3172 0
-3174 3102 0
-3174 3173 0
3174 -3102 -3173 0
-3175 3102 0
-3175 -3174 0
3175 -3102 3174 0
-3176 -3103 0
-3176 -3175 0
3176 3103 3175 0
-3177 3104 0
-3177 3176 0
3177 -3104 -3176 0
-3178 3104 0
-3178 -3177 0
3178 -3104 3177 0
-3179 -3105 0
-3179 -3178 0
3179 3105 3178 0
-3180 3106 0
-3180 3179 0
3180 -3106 -3179 0
-3181 3106 0
-3181 -3180 0
3181 -3106 3180 0
-3182 -3107 0
-3182 -3181 0
3182 3107 3181 0
-3183 3108 0
-3183 3182 0
3183 -3108 -3182 0
-3184 3108 0
-3184 -3183 0
3184 -3108 3183 0
-3185 -3109 0
-3185 -3184 0
3185 3109 3184 0
-3186 3110 0
-3186 3185 0
3186 -3110 -3185 0
-3187 3110 0
-3187 -3186 0
3187 -3110 3186 0
-3188 -3111 0
-3188 -3187 0
3188 3111 3187 0
-3189 3112 0
-3189 3188 0
3189 -3112 -3188 0
-3190 3112 0
-3190 -3189 0
3190 -3112 3189 0
-3191 -3113 0
-3191 -3190 0
3191 3113 3190 0
-3192 3114 0
-3192 3191 0
3192 -3114 -3191 0
-3193 3114 0
-3193 -3192 0
3193 -3114 3192 0
-3194 -3115 0
-3194 -3193 0
3194 3115 3193 0
-3195 3116 0
-3195 3194 0
3195 -3116 -3194 0
-3196 3116 0
-3196 -3195 0
3196 -3116 3195 0
-3197 -3117 0
-3197 -3196 0
3197 3117 3196 0
-3198 3118 0
-3198 3197 0
3198 -3118 -3197 0
-3199 3118 0
-3199 -3198 0
3199 -3118 3198 0
-3200 -3119 0
-3200 -3199 0
3200 3119 3199 0
-3201 3120 0
-3201 3200 0
3201 -3120 -3200 0
-3202 3120 0
-3202 -3201 0
3202 -3120 3201 0
-3203 -3121 0
-3203 -3202 0
3203 3121 3202 0
-3204 3122 0
-3204 3203 0
3204 -3122 -3203 0
-3205 3122 0
-3205 -3204 0
3205 -3122 3204 0
-3206 -3123 0
-3206 -3205 0
3206 3123 3205 0
-3207 3124 0
-3207 3206 0
3207 -3124 -3206 0
-3208 3124 0
-3208 -3207 0
3208 -3124 3207 0
-3209 -3125 0
-3209 -3208 0
3209 3125 3208 0
-3210 3126 0
-3210 3209 0
3210 -3126 -3209 0
-3211 3126 0
-3211 -3210 0
3211 -3126 3210 0
-3212 -3127 0
-3212 -3211 0
3212 3127 3211 0
-3213 3128 0
-3213 3212 0
3213 -3128 -3212 0
-3214 3128 0
-3214 -3213 0
3214 -3128 3213 0
-3215 -3129 0
-3215 -3214 0
3215 3129 3214 0
-3216 3130 0
-3216 3215 0
3216 -3130 -3215 0
-3217 3130 0
-3217 -3216 0
3217 -3130 3216 0
-3218 -3131 0
-3218 -3217 0
3218 3131 3217 0
-3219 3132 0
-3219 3218 0
3219 -3132 -3218 0
-3220 3132 0
-3220 -3219 0
3220 -3132 3219 0
-3221 -3133 0
-3221 -3220 0
3221 3133 3220 0
-3222 3134 0
-3222 3221 0
3222 -3134 -3221 0
-3223 3134 0
-3223 -3222 0
3223 -3134 3222 0
-3224 -3135 0
-3224 -3223 0
3224 3135 3223 0
-3225 3136 0
-3225 3224 0
3225 -3136 -3224 0
-3226 3136 0
-3226 -3225 0
3226 -3136 3225 0
-3227 -3137 0
-3227 -3226 0
3227 3137 3226 0
-3228 3138 0
-3228 3227 0
3228 -3138 -3227 0
-3229 3138 0
-3229 -3228 0
3229 -3138 3228 0
-3230 -3139 0
-3230 -3229 0
3230 3139 3229 0
-3231 3140 0
-3231 3230 0
3231 -3140 -3230 0
-3232 3140 0
-3232 -3231 0
3232 -3140 3231 0
-3233 -3141 0
-3233 -3232 0
3233 3141 3232 0
-3234 3142 0
-3234 3233 0
3234 -3142 -3233 0
-3235 3142 0
-3235 -3234 0
3235 -3142 3234 0
-3236 -3143 0
-3236 -3235 0
3236 3143 3235 0
-3237 3144 0
-3237 3236 0
3237 -3144 -3236 0
-3238 3144 0
-3238 -3237 0
3238 -3144 3237 0
-3239 -3145 0
-3239 -3238 0
3239 3145 3238 0
-3240 3082 0
-3240 -3239 0
3240 -3082 3239 0
-3241 3081 0
-3241 -3240 0
3241 -3081 3240 0
3242 -7358 0
-3242 7358 0
-3243 3241 0
-3243 3242 0
3243 -3241 -3242 0
3307 -7422 0
-3307 7422 0
3306 -7421 0
-3306 7421 0
3305 -7420 0
-3305 7420 0
3304 -7419 0
-3304 7419 0
3303 -7418 0
-3303 7418 0
3302 -7417 0
-3302 7417 0
3301 -7416 0
-3301 7416 0
3300 -7415 0
-3300 7415 0
3299 -7414 0
-3299 7414 0
3298 -7413 0
-3298 7413 0
3297 -7412 0
-3297 7412 0
3296 -7411 0
-3296 7411 0
3295 -7410 0
-3295 7410 0
3294 -7409 0
-3294 7409 0
3293 -7408 0
-3293 7408 0
3292 -7407 0
-3292 7407 0
3291 -7406 0
-3291 7406 0
3290 -7405 0
-3290 7405 0
3289 -7404 0
-3289 7404 0
3288 -7403 0
-3288 7403 0
3287 -7402 0
-3287 7402 0
3286 -7401 0
-3286 7401 0
3285 -7400 0
-3285 7400 0
3284 -7399 0
-3284 7399 0
3283 -7398 0
-3283 7398 0
3282 -7397 0
-3282 7397 0
3281 -7396 0
-3281 7396 0
3280 -7395 0
-3280 7395 0
3279 -7394 0
-3279 7394 0
3278 -7393 0
-3278 7393 0
3277 -7392 0
-3277 7392 0
3276 -7391 0
-3276 7391 0
3275 -7390 0
-3275 7390 0
3274 -7389 0
-3274 7389 0
3273 -7388 0
-3273 7388 0
3272 -7387 0
-3272 7387 0
3271 -7386 0
-3271 7386 0
3270 -7385 0
-3270 7385 0
3269 -7384 0
-3269 7384 0
3268 -7383 0
-3268 7383 0
3267 -7382 0
-3267 7382 0
3266 -7381 0
-3266 7381 0
3265 -7380 0
-3265 7380 0
3264 -7379 0
-3264 7379 0
3263 -7378 0
-3263 7378 0
3262 -7377 0
-3262 7377 0
3261 -7376 0
-3261 7376 0
3260 -7375 0
-3260 7375 0
3259 -7374 0
-3259 7374 0
3258 -7373 0
-3258 7373 0
3257 -7372 0
-3257 7372 0
3256 -7371 0
-3256 7371 0
3255 -7370 0
-3255 7370 0
3254 -7369 0
-3254 7369 0
3253 -7368 0
-3253 7368 0
3252 -7367 0
-3252 7367 0
3251 -7366 0
-3251 7366 0
3250 -7365 0
-3250 7365 0
3249 -7364 0
-3249 7364 0
3248 -7363 0
-3248 7363 0
3247 -7362 0
-3247 7362 0
3246 -7361 0
-3246 7361 0
3245 -7360 0
-3245 7360 0
-3308 -3244 0
-3308 -3245 0
3308 3244 3245 0
-3309 3246 0
-3309 3308 0
3309 -3246 -3308 0
-3310 3246 0
-3310 -3309 0
3310 -3246 3309 0
-3311 -3247 0
-3311 -3310 0
3311 3247 3310 0
-3312 3248 0
-3312 3311 0
3312 -3248 -3311 0
-3313 3248 0
-3313 -3312 0
3313 -3248 3312 0
-3314 -3249 0
-3314 -3313 0
3314 3249 3313 0
-3315 3250 0
-3315 3314 0
3315 -3250 -3314 0
-3316 3250 0
-3316 -3315 0
3316 -3250 3315 0
-3317 -3251 0
-3317 -3316 0
3317 3251 3316 0
-3318 3252 0
-3318 3317 0
3318 -3252 -3317 0
-3319 3252 0
-3319 -3318 0
3319 -3252 3318 0
-3320 -3253 0
-3320 -3319 0
3320 3253 3319 0
-3321 3254 0
-3321 3320 0
3321 -3254 -3320 0
-3322 3254 0
-3322 -3321 0
3322 -3254 3321 0
-3323 -3255 0
-3323 -3322 0
3323 3255 3322 0
-3324 3256 0
-3324 3323 0
3324 -3256 -3323 0
-3325 3256 0
-3325 -3324 0
3325 -3256 3324 0
-3326 -3257 0
-3326 -3325 0
3326 3257 3325 0
-3327 3258 0
-3327 3326 0
3327 -3258 -3326 0
-3328 3258 0
-3328 -3327 0
3328 -3258 3327 0
-3329 -3259 0
-3329 -3328 0
3329 3259 3328 0
-3330 3260 0
-3330 3329 0
3330 -3260 -3329 0
-3331 3260 0
-3331 -3330 0
3331 -3260 3330 0
-3332 -3261 0
-3332 -3331 0
3332 3261 3331 0
-3333 3262 0
-3333 3332 0
3333 -3262 -3332 0
-3334 3262 0
-3334 -3333 0
3334 -3262 3333 0
-3335 -3263 0
-3335 -3334 0
3335 3263 3334 0
-3336 3264 0
-3336 3335 0
3336 -3264 -3335 0
-3337 3264 0
-3337 -3336 0
3337 -3264 3336 0
-3338 -3265 0
-3338 -3337 0
3338 3265 3337 0
-3339 3266 0
-3339 3338 0
3339 -3266 -3338 0
-3340 3266 0
-3340 -3339 0
3340 -3266 3339 0
-3341 -3267 0
-3341 -3340 0
3341 3267 3340 0
-3342 3268 0
-3342 3341 0
3342 -3268 -3341 0
-3343 3268 0
-3343 -3342 0
3343 -3268 3342 0
-3344 -3269 0
-3344 -3343 0
3344 3269 3343 0
-3345 3270 0
-3345 3344 0
3345 -3270 -3344 0
-3346 3270 0
-3346 -3345 0
3346 -3270 3345 0
-3347 -3271 0
-3347 -3346 0
3347 3271 3346 0
-3348 3272 0
-3348 3347 0
3348 -3272 -3347 0
-3349 3272 0
-3349 -3348 0
3349 -3272 3348 0
-3350 -3273 0
-3350 -3349 0
3350 3273 3349 0
-3351 3274 0
-3351 3350 0
3351 -3274 -3350 0
-3352 3274 0
-3352 -3351 0
3352 -3274 3351 0
-3353 -3275 0
-3353 -3352 0
3353 3275 3352 0
-3354 3276 0
-3354 3353 0
3354 -3276 -3353 0
-3355 3276 0
-3355 -3354 0
3355 -3276 3354 0
-3356 -3277 0
-3356 -3355 0
3356 3277 3355 0
-3357 3278 0
-3357 3356 0
3357 -3278 -3356 0
-3358 3278 0
-3358 -3357 0
3358 -3278 3357 0
-3359 -3279 0
-3359 -3358 0
3359 3279 3358 0
-3360 3280 0
-3360 3359 0
3360 -3280 -3359 0
-3361 3280 0
-3361 -3360 0
3361 -3280 3360 0
-3362 -3281 0
-3362 -3361 0
3362 3281 3361 0
-3363 3282 0
-3363 3362 0
3363 -3282 -3362 0
-3364 3282 0
-3364 -3363 0
3364 -3282 3363 0
-3365 -3283 0
-3365 -3364 0
3365 3283 3364 0
-3366 3284 0
-3366 3365 0
3366 -3284 -3365 0
-3367 3284 0
-3367 -3366 0
3367 -3284 3366 0
-3368 -3285 0
-3368 -3367 0
3368 3285 3367 0
-3369 3286 0
-3369 3368 0
3369 -3286 -3368 0
-3370 3286 0
-3370 -3369 0
3370 -3286 3369 0
-3371 -3287 0
-3371 -3370 0
3371 3287 3370 0
-3372 3288 0
-3372 3371 0
3372 -3288 -3371 0
-3373 3288 0
-3373 -3372 0
3373 -3288 3372 0
-3374 -3289 0
-3374 -3373 0
3374 3289 3373 0
-3375 3290 0
-3375 3374 0
3375 -3290 -3374 0
-3376 3290 0
-3376 -3375 0
3376 -3290 3375 0
-3377 -3291 0
-3377 -3376 0
3377 3291 3376 0
-3378 3292 0
-3378 3377 0
3378 -3292 -3377 0
-3379 3292 0
-3379 -3378 0
3379 -3292 3378 0
-3380 -3293 0
-3380 -3379 0
3380 3293 3379 0
-3381 3294 0
-3381 3380 0
3381 -3294 -3380 0
-3382 3294 0
-3382 -3381 0
3382 -3294 3381 0
-3383 -3295 0
-3383 -3382 0
3383 3295 3382 0
-3384 3296 0
-3384 3383 0
3384 -3296 -3383 0
-3385 3296 0
-3385 -3384 0
3385 -3296 3384 0
-3386 -3297 0
-3386 -3385 0
3386 3297 3385 0
-3387 3298 0
-3387 3386 0
3387 -3298 -3386 0
-3388 3298 0
-3388 -3387 0
3388 -3298 3387 0
-3389 -3299 0
-3389 -3388 0
3389 3299 3388 0
-3390 3300 0
-3390 3389 0
3390 -3300 -3389 0
-3391 3300 0
-3391 -3390 0
3391 -3300 3390 0
-3392 -3301 0
-3392 -3391 0
3392 3301 3391 0
-3393 3302 0
-3393 3392 0
3393 -3302 -3392 0
-3394 3302 0
-3394 -3393 0
3394 -3302 3393 0
-3395 -3303 0
-3395 -3394 0
3395 3303 3394 0
-3396 3304 0
-3396 3395 0
3396 -3304 -3395 0
-3397 3304 0
-3397 -3396 0
3397 -3304 3396 0
-3398 -3305 0
-3398 -3397 0
3398 3305 3397 0
-3399 3306 0
-3399 3398 0
3399 -3306 -3398 0
-3400 3306 0
-3400 -3399 0
3400 -3306 3399 0
-3401 -3307 0
-3401 -3400 0
3401 3307 3400 0
-3402 3244 0
-3402 -3401 0
3402 -3244 3401 0
-3403 3243 0
-3403 -3402 0
3403 -3243 3402 0
3404 -7423 0
-3404 7423 0
-3405 3403 0
-3405 3404 0
3405 -3403 -3404 0
3469 -7487 0
-3469 7487 0
3468 -7486 0
-3468 7486 0
3467 -7485 0
-3467 7485 0
3466 -7484 0
-3466 7484 0
3465 -7483 0
-3465 7483 0
3464 -7482 0
-3464 7482 0
3463 -7481 0
-3463 7481 0
3462 -7480 0
-3462 7480 0
3461 -7479 0
-3461 7479 0
3460 -7478 0
-3460 7478 0
3459 -7477 0
-3459 7477 0
3458 -7476 0
-3458 7476 0
3457 -7475 0
-3457 7475 0
3456 -7474 0
-3456 7474 0
3455 -7473 0
-3455 7473 0
3454 -7472 0
-3454 7472 0
3453 -7471 0
-3453 7471 0
3452 -7470 0
-3452 7470 0
3451 -7469 0
-3451 7469 0
3450 -7468 0
-3450 7468 0
3449 -7467 0
-3449 7467 0
3448 -7466 0
-3448 7466 0
3447 -7465 0
-3447 7465 0
3446 -7464 0
-3446 7464 0
3445 -7463 0
-3445 7463 0
3444 -7462 0
-3444 7462 0
3443 -7461 0
-3443 7461 0
3442 -7460 0
-3442 7460 0
3441 -7459 0
-3441 7459 0
3440 -7458 0
-3440 7458 0
3439 -7457 0
-3439 7457 0
3438 -7456 0
-3438 7456 0
3437 -7455 0
-3437 7455 0
3436 -7454 0
-3436 7454 0
3435 -7453 0
-3435 7453 0
3434 -7452 0
-3434 7452 0
3433 -7451 0
-3433 7451 0
3432 -7450 0
-3432 7450 0
3431 -7449 0
-3431 7449 0
3430 -7448 0
-3430 7448 0
3429 -7447 0
-3429 7447 0
3428 -7446 0
-3428 7446 0
3427 -7445 0
-3427 7445 0
3426 -7444 0
-3426 7444 0
3425 -7443 0
-3425 7443 0
3424 -7442 0
-3424 7442 0
3423 -7441 0
-3423 7441 0
3422 -7440 0
-3422 7440 0
3421 -7439 0
-3421 7439 0
3420 -7438 0
-3420 7438 0
3419 -7437 0
-3419 7437 0
3418 -7436 0
-3418 7436 0
3417 -7435 0
-3417 7435 0
3416 -7434 0
-3416 7434 0
3415 -7433 0
-3415 7433 0
3414 -7432 0
-3414 7432 0
3413 -7431 0
-3413 7431 0
3412 -7430 0
-3412 7430 0
3411 -7429 0
-3411 7429 0
3410 -7428 0
-3410 7428 0
3409 -7427 0
-3409 7427 0
3408 -7426 0
-3408 7426 0
3407 -7425 0
-3407 7425 0
-3470 -3406 0
-3470 -3407 0
3470 3406 3407 0
-3471 3408 0
-3471 3470 0
3471 -3408 -3470 0
-3472 3408 0
-3472 -3471 0
3472 -3408 3471 0
-3473 -3409 0
-3473 -3472 0
3473 3409 3472 0
-3474 3410 0
-3474 3473 0
3474 -3410 -3473 0
-3475 3410 0
-3475 -3474 0
3475 -3410 3474 0
-3476 -3411 0
-3476 -3475 0
3476 3411 3475 0
-3477 3412 0
-3477 3476 0
3477 -3412 -3476 0
-3478 3412 0
-3478 -3477 0
3478 -3412 3477 0
-3479 -3413 0
-3479 -3478 0
3479 3413 3478 0
-3480 3414 0
-3480 3479 0
3480 -3414 -3479 0
-3481 3414 0
-3481 -3480 0
3481 -3414 3480 0
-3482 -3415 0
-3482 -3481 0
3482 3415 3481 0
-3483 3416 0
-3483 3482 0
3483 -3416 -3482 0
-3484 3416 0
-3484 -3483 0
3484 -3416 3483 0
-3485 -3417 0
-3485 -3484 0
3485 3417 3484 0
-3486 3418 0
-3486 3485 0
3486 -3418 -3485 0
-3487 3418 0
-3487 -3486 0
3487 -3418 3486 0
-3488 -3419 0
-3488 -3487 0
3488 3419 3487 0
-3489 3420 0
-3489 3488 0
3489 -3420 -3488 0
-3490 3420 0
-3490 -3489 0
3490 -3420 3489 0
-3491 -3421 0
-3491 -3490 0
3491 3421 3490 0
-3492 3422 0
-3492 3491 0
3492 -3422 -3491 0
-3493 3422 0
-3493 -3492 0
3493 -3422 3492 0
-3494 -3423 0
-3494 -3493 0
3494 3423 3493 0
-3495 3424 0
-3495 3494 0
3495 -3424 -3494 0
-3496 3424 0
-3496 -3495 0
3496 -3424 3495 0
-3497 -3425 0
-3497 -3496 0
3497 3425 3496 0
-3498 3426 0
-3498 3497 0
3498 -3426 -3497 0
-3499 3426 0
-3499 -3498 0
3499 -3426 3498 0
-3500 -3427 0
-3500 -3499 0
3500 3427 3499 0
-3501 3428 0
-3501 3500 0
3501 -3428 -3500 0
-3502 3428 0
-3502 -3501 0
3502 -3428 3501 0
-3503 -3429 0
-3503 -3502 0
3503 3429 3502 0
-3504 3430 0
-3504 3503 0
3504 -3430 -3503 0
-3505 3430 0
-3505 -3504 0
3505 -3430 3504 0
-3506 -3431 0
-3506 -3505 0
3506 3431 3505 0
-3507 3432 0
-3507 3506 0
3507 -3432 -3506 0
-3508 3432 0
-3508 -3507 0
3508 -3432 3507 0
-3509 -3433 0
-3509 -3508 0
3509 3433 3508 0
-3510 3434 0
-3510 3509 0
3510 -3434 -3509 0
-3511 3434 0
-3511 -3510 0
3511 -3434 3510 0
-3512 -3435 0
-3512 -3511 0
3512 3435 3511 0
-3513 3436 0
-3513 3512 0
3513 -3436 -3512 0
-3514 3436 0
-3514 -3513 0
3514 -3436 3513 0
-3515 -3437 0
-3515 -3514 0
3515 3437 3514 0
-3516 3438 0
-3516 3515 0
3516 -3438 -3515 0
-3517 3438 0
-3517 -3516 0
3517 -3438 3516 0
-3518 -3439 0
-3518 -3517 0
3518 3439 3517 0
-3519 3440 0
-3519 3518 0
3519 -3440 -3518 0
-3520 3440 0
-3520 -3519 0
3520 -3440 3519 0
-3521 -3441 0
-3521 -3520 0
3521 3441 3520 0
-3522 3442 0
-3522 3521 0
3522 -3442 -3521 0
-3523 3442 0
-3523 -3522 0
3523 -3442 3522 0
-3524 -3443 0
-3524 -3523 0
3524 3443 3523 0
-3525 3444 0
-3525 3524 0
3525 -3444 -3524 0
-3526 3444 0
-3526 -3525 0
3526 -3444 3525 0
-3527 -3445 0
-3527 -3526 0
3527 3445 3526 0
-3528 3446 0
-3528 3527 0
3528 -3446 -3527 0
-3529 3446 0
-3529 -3528 0
3529 -3446 3528 0
-3530 -3447 0
-3530 -3529 0
3530 3447 3529 0
-3531 3448 0
-3531 3530 0
3531 -3448 -3530 0
-3532 3448 0
-3532 -3531 0
3532 -3448 3531 0
-3533 -3449 0
-3533 -3532 0
3533 3449 3532 0
-3534 3450 0
-3534 3533 0
3534 -3450 -3533 0
-3535 3450 0
-3535 -3534 0
3535 -3450 3534 0
-3536 -3451 0
-3536 -3535 0
3536 3451 3535 0
-3537 3452 0
-3537 3536 0
3537 -3452 -3536 0
-3538 3452 0
-3538 -3537 0
3538 -3452 3537 0
-3539 -3453 0
-3539 -3538 0
3539 3453 3538 0
-3540 3454 0
-3540 3539 0
3540 -3454 -3539 0
-3541 3454 0
-3541 -3540 0
3541 -3454 3540 0
-3542 -3455 0
-3542 -3541 0
3542 3455 3541 0
-3543 3456 0
-3543 3542 0
3543 -3456 -3542 0
-3544 3456 0
-3544 -3543 0
3544 -3456 3543 0
-3545 -3457 0
-3545 -3544 0
3545 3457 3544 0
-3546 3458 0
-3546 3545 0
3546 -3458 -3545 0
-3547 3458 0
-3547 -3546 0
3547 -3458 3546 0
-3548 -3459 0
-3548 -3547 0
3548 3459 3547 0
-3549 3460 0
-3549 3548 0
3549 -3460 -3548 0
-3550 3460 0
-3550 -3549 0
3550 -3460 3549 0
-3551 -3461 0
-3551 -3550 0
3551 3461 3550 0
-3552 3462 0
-3552 3551 0
3552 -3462 -3551 0
-3553 3462 0
-3553 -3552 0
3553 -3462 3552 0
-3554 -3463 0
-3554 -3553 0
3554 3463 3553 0
-3555 3464 0
-3555 3554 0
3555 -3464 -3554 0
-3556 3464 0
-3556 -3555 0
3556 -3464 3555 0
-3557 -3465 0
-3557 -3556 0
3557 3465 3556 0
-3558 3466 0
-3558 3557 0
3558 -3466 -3557 0
-3559 3466 0
-3559 -3558 0
3559 -3466 3558 0
-3560 -3467 0
-3560 -3559 0
3560 3467 3559 0
-3561 3468 0
-3561 3560 0
3561 -3468 -3560 0
-3562 3468 0
-3562 -3561 0
3562 -3468 3561 0
-3563 -3469 0
-3563 -3562 0
3563 3469 3562 0
-3564 3406 0
-3564 -3563 0
3564 -3406 3563 0
-3565 3405 0
-3565 -3564 0
3565 -3405 3564 0
3566 -7488 0
-3566 7488 0
-3567 3565 0
-3567 3566 0
3567 -3565 -3566 0
3631 -7552 0
-3631 7552 0
3630 -7551 0
-3630 7551 0
3629 -7550 0
-3629 7550 0
3628 -7549 0
-3628 7549 0
3627 -7548 0
-3627 7548 0
3626 -7547 0
-3626 7547 0
3625 -7546 0
-3625 7546 0
3624 -7545 0
-3624 7545 0
3623 -7544 0
-3623 7544 0
3622 -7543 0
-3622 7543 0
3621 -7542 0
-3621 7542 0
3620 -7541 0
-3620 7541 0
3619 -7540 0
-3619 7540 0
3618 -7539 0
-3618 7539 0
3617 -7538 0
-3617 7538 0
3616 -7537 0
-3616 7537 0
3615 -7536 0
-3615 7536 0
3614 -7535 0
-3614 7535 0
3613 -7534 0
-3613 7534 0
3612 -7533 0
-3612 7533 0
3611 -7532 0
-3611 7532 0
3610 -7531 0
-3610 7531 0
3609 -7530 0
-3609 7530 0
3608 -7529 0
-3608 7529 0
3607 -7528 0
-3607 7528 0
3606 -7527 0
-3606 7527 0
3605 -7526 0
-3605 7526 0
3604 -7525 0
-3604 7525 0
3603 -7524 0
-3603 7524 0
3602 -7523 0
-3602 7523 0
3601 -7522 0
-3601 7522 0
3600 -7521 0
-3600 7521 0
3599 -7520 0
-3599 7520 0
3598 -7519 0
-3598 7519 0
3597 -7518 0
-3597 7518 0
3596 -7517 0
-3596 7517 0
3595 -7516 0
-3595 7516 0
3594 -7515 0
-3594 7515 0
3593 -7514 0
-3593 7514 0
3592 -7513 0
-3592 7513 0
3591 -7512 0
-3591 7512 0
3590 -7511 0
-3590 7511 0
3589 -7510 0
-3589 7510 0
3588 -7509 0
-3588 7509 0
3587 -7508 0
-3587 7508 0
3586 -7507 0
-3586 7507 0
3585 -7506 0
-3585 7506 0
3584 -7505 0
-3584 7505 0
3583 -7504 0
-3583 7504 0
3582 -7503 0
-3582 7503 0
3581 -7502 0
-3581 7502 0
3580 -7501 0
-3580 7501 0
3579 -7500 0
-3579 7500 0
3578 -7499 0
-3578 7499 0
3577 -7498 0
-3577 7498 0
3576 -7497 0
-3576 7497 0
3575 -7496 0
-3575 7496 0
3574 -7495 0
-3574 7495 0
3573 -7494 0
-3573 7494 0
3572 -7493 0
-3572 7493 0
3571 -7492 0
-3571 7492 0
3570 -7491 0
-3570 7491 0
3569 -7490 0
-3569 7490 0
-3632 -3568 0
-3632 -3569 0
3632 3568 3569 0
-3633 3570 0
-3633 3632 0
3633 -3570 -3632 0
-3634 3570 0
-3634 -3633 0
3634 -3570 3633 0
-3635 -3571 0
-3635 -3634 0
3635 3571 3634 0
-3636 3572 0
-3636 3635 0
3636 -3572 -3635 0
-3637 3572 0
-3637 -3636 0
3637 -3572 3636 0
-3638 -3573 0
-3638 -3637 0
3638 3573 3637 0
-3639 3574 0
-3639 3638 0
3639 -3574 -3638 0
-3640 3574 0
-3640 -3639 0
3640 -3574 3639 0
-3641 -3575 0
-3641 -3640 0
3641 3575 3640 0
-3642 3576 0
-3642 3641 0
3642 -3576 -3641 0
-3643 3576 0
-3643 -3642 0
3643 -3576 3642 0
-3644 -3577 0
-3644 -3643 0
3644 3577 3643 0
-3645 3578 0
-3645 3644 0
3645 -3578 -3644 0
-3646 3578 0
-3646 -3645 0
3646 -3578 3645 0
-3647 -3579 0
-3647 -3646 0
3647 3579 3646 0
-3648 3580 0
-3648 3647 0
3648 -3580 -3647 0
-3649 3580 0
-3649 -3648 0
3649 -3580 3648 0
-3650 -3581 0
-3650 -3649 0
3650 3581 3649 0
-3651 3582 0
-3651 3650 0
3651 -3582 -3650 0
-3652 3582 0
-3652 -3651 0
3652 -3582 3651 0
-3653 -3583 0
-3653 -3652 0
3653 3583 3652 0
-3654 3584 0
-3654 3653 0
3654 -3584 -3653 0
-3655 3584 0
-3655 -3654 0
3655 -3584 3654 0
-3656 -3585 0
-3656 -3655 0
3656 3585 3655 0
-3657 3586 0
-3657 3656 0
3657 -3586 -3656 0
-3658 3586 0
-3658 -3657 0
3658 -3586 3657 0
-3659 -3587 0
-3659 -3658 0
3659 3587 3658 0
-3660 3588 0
-3660 3659 0
3660 -3588 -3659 0
-3661 3588 0
-3661 -3660 0
3661 -3588 3660 0
-3662 -3589 0
-3662 -3661 0
3662 3589 3661 0
-3663 3590 0
-3663 3662 0
3663 -3590 -3662 0
-3664 3590 0
-3664 -3663 0
3664 -3590 3663 0
-3665 -3591 0
-3665 -3664 0
3665 3591 3664 0
-3666 3592 0
-3666 3665 0
3666 -3592 -3665 0
-3667 3592 0
-3667 -3666 0
3667 -3592 3666 0
-3668 -3593 0
-3668 -3667 0
3668 3593 3667 0
-3669 3594 0
-3669 3668 0
3669 -3594 -3668 0
-3670 3594 0
-3670 -3669 0
3670 -3594 3669 0
-3671 -3595 0
-3671 -3670 0
3671 3595 3670 0
-3672 3596 0
-3672 3671 0
3672 -3596 -3671 0
-3673 3596 0
-3673 -3672 0
3673 -3596 3672 0
-3674 -3597 0
-3674 -3673 0
3674 3597 3673 0
-3675 3598 0
-3675 3674 0
3675 -3598 -3674 0
-3676 3598 0
-3676 -3675 0
3676 -3598 3675 0
-3677 -3599 0
-3677 -3676 0
3677 3599 3676 0
-3678 3600 0
-3678 3677 0
3678 -3600 -3677 0
-3679 3600 0
-3679 -3678 0
3679 -3600 3678 0
-3680 -3601 0
-3680 -3679 0
3680 3601 3679 0
-3681 3602 0
-3681 3680 0
3681 -3602 -3680 0
-3682 3602 0
-3682 -3681 0
3682 -3602 3681 0
-3683 -3603 0
-3683 -3682 0
3683 3603 3682 0
-3684 3604 0
-3684 3683 0
3684 -3604 -3683 0
-3685 3604 0
-3685 -3684 0
3685 -3604 3684 0
-3686 -3605 0
-3686 -3685 0
3686 3605 3685 0
-3687 3606 0
-3687 3686 0
3687 -3606 -3686 0
-3688 3606 0
-3688 -3687 0
3688 -3606 3687 0
-3689 -3607 0
-3689 -3688 0
3689 3607 3688 0
-3690 3608 0
-3690 3689 0
3690 -3608 -3689 0
-3691 3608 0
-3691 -3690 0
3691 -3608 3690 0
-3692 -3609 0
-3692 -3691 0
3692 3609 3691 0
-3693 3610 0
-3693 3692 0
3693 -3610 -3692 0
-3694 3610 0
-3694 -3693 0
3694 -3610 3693 0
-3695 -3611 0
-3695 -3694 0
3695 3611 3694 0
-3696 3612 0
-3696 3695 0
3696 -3612 -3695 0
-3697 3612 0
-3697 -3696 0
3697 -3612 3696 0
-3698 -3613 0
-3698 -3697 0
3698 3613 3697 0
-3699 3614 0
-3699 3698 0
3699 -3614 -3698 0
-3700 3614 0
-3700 -3699 0
3700 -3614 3699 0
-3701 -3615 0
-3701 -3700 0
3701 3615 3700 0
-3702 3616 0
-3702 3701 0
3702 -3616 -3701 0
-3703 3616 0
-3703 -3702 0
3703 -3616 3702 0
-3704 -3617 0
-3704 -3703 0
3704 3617 3703 0
-3705 3618 0
-3705 3704 0
3705 -3618 -3704 0
-3706 3618 0
-3706 -3705 0
3706 -3618 3705 0
-3707 -3619 0
-3707 -3706 0
3707 3619 3706 0
-3708 3620 0
-3708 3707 0
3708 -3620 -3707 0
-3709 3620 0
-3709 -3708 0
3709 -3620 3708 0
-3710 -3621 0
-3710 -3709 0
3710 3621 3709 0
-3711 3622 0
-3711 3710 0
3711 -3622 -3710 0
-3712 3622 0
-3712 -3711 0
3712 -3622 3711 0
-3713 -3623 0
-3713 -3712 0
3713 3623 3712 0
-3714 3624 0
-3714 3713 0
3714 -3624 -3713 0
-3715 3624 0
-3715 -3714 0
3715 -3624 3714 0
-3716 -3625 0
-3716 -3715 0
3716 3625 3715 0
-3717 3626 0
-3717 3716 0
3717 -3626 -3716 0
-3718 3626 0
-3718 -3717 0
3718 -3626 3717 0
-3719 -3627 0
-3719 -3718 0
3719 3627 3718 0
-3720 3628 0
-3720 3719 0
3720 -3628 -3719 0
-3721 3628 0
-3721 -3720 0
3721 -3628 3720 0
-3722 -3629 0
-3722 -3721 0
3722 3629 3721 0
-3723 3630 0
-3723 3722 0
3723 -3630 -3722 0
-3724 3630 0
-3724 -3723 0
3724 -3630 3723 0
-3725 -3631 0
-3725 -3724 0
3725 3631 3724 0
-3726 3568 0
-3726 -3725 0
3726 -3568 3725 0
-3727 3567 0
-3727 -3726 0
3727 -3567 3726 0
3728 -7553 0
-3728 7553 0
-3729 3727 0
-3729 3728 0
3729 -3727 -3728 0
3793 -7617 0
-3793 7617 0
3792 -7616 0
-3792 7616 0
3791 -7615 0
-3791 7615 0
3790 -7614 0
-3790 7614 0
3789 -7613 0
-3789 7613 0
3788 -7612 0
-3788 7612 0
3787 -7611 0
-3787 7611 0
3786 -7610 0
-3786 7610 0
3785 -7609 0
-3785 7609 0
3784 -7608 0
-3784 7608 0
3783 -7607 0
-3783 7607 0
3782 -7606 0
-3782 7606 0
3781 -7605 0
-3781 7605 0
3780 -7604 0
-3780 7604 0
3779 -7603 0
-3779 7603 0
3778 -7602 0
-3778 7602 0
3777 -7601 0
-3777 7601 0
3776 -7600 0
-3776 7600 0
3775 -7599 0
-3775 7599 0
3774 -7598 0
-3774 7598 0
3773 -7597 0
-3773 7597 0
3772 -7596 0
-3772 7596 0
3771 -7595 0
-3771 7595 0
3770 -7594 0
-3770 7594 0
3769 -7593 0
-3769 7593 0
3768 -7592 0
-3768 7592 0
3767 -7591 0
-3767 7591 0
3766 -7590 0
-3766 7590 0
3765 -7589 0
-3765 7589 0
3764 -7588 0
-3764 7588 0
3763 -7587 0
-3763 7587 0
3762 -7586 0
-3762 7586 0
3761 -7585 0
-3761 7585 0
3760 -7584 0
-3760 7584 0
3759 -7583 0
-3759 7583 0
3758 -7582 0
-3758 7582 0
3757 -7581 0
-3757 7581 0
3756 -7580 0
-3756 7580 0
3755 -7579 0
-3755 7579 0
3754 -7578 0
-3754 7578 0
3753 -7577 0
-3753 7577 0
3752 -7576 0
-3752 7576 0
3751 -7575 0
-3751 7575 0
3750 -7574 0
-3750 7574 0
3749 -7573 0
-3749 7573 0
3748 -7572 0
-3748 7572 0
3747 -7571 0
-3747 7571 0
3746 -7570 0
-3746 7570 0
3745 -7569 0
-3745 7569 0
3744 -7568 0
-3744 7568 0
3743 -7567 0
-3743 7567 0
3742 -7566 0
-3742 7566 0
3741 -7565 0
-3741 7565 0
3740 -7564 0
-3740 7564 0
3739 -7563 0
-3739 7563 0
3738 -7562 0
-3738 7562 0
3737 -7561 0
-3737 7561 0
3736 -7560 0
-3736 7560 0
3735 -7559 0
-3735 7559 0
3734 -7558 0
-3734 7558 0
3733 -7557 0
-3733 7557 0
3732 -7556 0
-3732 7556 0
3731 -7555 0
-3731 7555 0
-3794 -3730 0
-3794 -3731 0
3794 3730 3731 0
-3795 3732 0
-3795 3794 0
3795 -3732 -3794 0
-3796 3732 0
-3796 -3795 0
3796 -3732 3795 0
-3797 -3733 0
-3797 -3796 0
3797 3733 3796 0
-3798 3734 0
-3798 3797 0
3798 -3734 -3797 0
-3799 3734 0
-3799 -3798 0
3799 -3734 3798 0
-3800 -3735 0
-3800 -3799 0
3800 3735 3799 0
-3801 3736 0
-3801 3800 0
3801 -3736 -3800 0
-3802 3736 0
-3802 -3801 0
3802 -3736 3801 0
-3803 -3737 0
-3803 -3802 0
3803 3737 3802 0
-3804 3738 0
-3804 3803 0
3804 -3738 -3803 0
-3805 3738 0
-3805 -3804 0
3805 -3738 3804 0
-3806 -3739 0
-3806 -3805 0
3806 3739 3805 0
-3807 3740 0
-3807 3806 0
3807 -3740 -3806 0
-3808 3740 0
-3808 -3807 0
3808 -3740 3807 0
-3809 -3741 0
-3809 -3808 0
3809 3741 3808 0
-3810 3742 0
-3810 3809 0
3810 -3742 -3809 0
-3811 3742 0
-3811 -3810 0
3811 -3742 3810 0
-3812 -3743 0
-3812 -3811 0
3812 3743 3811 0
-3813 3744 0
-3813 3812 0
3813 -3744 -3812 0
-3814 3744 0
-3814 -3813 0
3814 -3744 3813 0
-3815 -3745 0
-3815 -3814 0
3815 3745 3814 0
-3816 3746 0
-3816 3815 0
3816 -3746 -3815 0
-3817 3746 0
-3817 -3816 0
3817 -3746 3816 0
-3818 -3747 0
-3818 -3817 0
3818 3747 3817 0
-3819 3748 0
-3819 3818 0
3819 -3748 -3818 0
-3820 3748 0
-3820 -3819 0
3820 -3748 3819 0
-3821 -3749 0
-3821 -3820 0
3821 3749 3820 0
-3822 3750 0
-3822 3821 0
3822 -3750 -3821 0
-3823 3750 0
-3823 -3822 0
3823 -3750 3822 0
-3824 -3751 0
-3824 -3823 0
3824 3751 3823 0
-3825 3752 0
-3825 3824 0
3825 -3752 -3824 0
-3826 3752 0
-3826 -3825 0
3826 -3752 3825 0
-3827 -3753 0
-3827 -3826 0
3827 3753 3826 0
-3828 3754 0
-3828 3827 0
3828 -3754 -3827 0
-3829 3754 0
-3829 -3828 0
3829 -3754 3828 0
-3830 -3755 0
-3830 -3829 0
3830 3755 3829 0
-3831 3756 0
-3831 3830 0
3831 -3756 -3830 0
-3832 3756 0
-3832 -3831 0
3832 -3756 3831 0
-3833 -3757 0
-3833 -3832 0
3833 3757 3832 0
-3834 3758 0
-3834 3833 0
3834 -3758 -3833 0
-3835 3758 0
-3835 -3834 0
3835 -3758 3834 0
-3836 -3759 0
-3836 -3835 0
3836 3759 3835 0
-3837 3760 0
-3837 3836 0
3837 -3760 -3836 0
-3838 3760 0
-3838 -3837 0
3838 -3760 3837 0
-3839 -3761 0
-3839 -3838 0
3839 3761 3838 0
-3840 3762 0
-3840 3839 0
3840 -3762 -3839 0
-3841 3762 0
-3841 -3840 0
3841 -3762 3840 0
-3842 -3763 0
-3842 -3841 0
3842 3763 3841 0
-3843 3764 0
-3843 3842 0
3843 -3764 -3842 0
-3844 3764 0
-3844 -3843 0
3844 -3764 3843 0
-3845 -3765 0
-3845 -3844 0
3845 3765 3844 0
-3846 3766 0
-3846 3845 0
3846 -3766 -3845 0
-3847 3766 0
-3847 -3846 0
3847 -3766 3846 0
-3848 -3767 0
-3848 -3847 0
3848 3767 3847 0
-3849 3768 0
-3849 3848 0
3849 -3768 -3848 0
-3850 3768 0
-3850 -3849 0
3850 -3768 3849 0
-3851 -3769 0
-3851 -3850 0
3851 3769 3850 0
-3852 3770 0
-3852 3851 0
3852 -3770 -3851 0
-3853 3770 0
-3853 -3852 0
3853 -3770 3852 0
-3854 -3771 0
-3854 -3853 0
3854 3771 3853 0
-3855 3772 0
-3855 3854 0
3855 -3772 -3854 0
-3856 3772 0
-3856 -3855 0
3856 -3772 3855 0
-3857 -3773 0
-3857 -3856 0
3857 3773 3856 0
-3858 3774 0
-3858 3857 0
3858 -3774 -3857 0
-3859 3774 0
-3859 -3858 0
3859 -3774 3858 0
-3860 -3775 0
-3860 -3859 0
3860 3775 3859 0
-3861 3776 0
-3861 3860 0
3861 -3776 -3860 0
-3862 3776 0
-3862 -3861 0
3862 -3776 3861 0
-3863 -3777 0
-3863 -3862 0
3863 3777 3862 0
-3864 3778 0
-3864 3863 0
3864 -3778 -3863 0
-3865 3778 0
-3865 -3864 0
3865 -3778 3864 0
-3866 -3779 0
-3866 -3865 0
3866 3779 3865 0
-3867 3780 0
-3867 3866 0
3867 -3780 -3866 0
-3868 3780 0
-3868 -3867 0
3868 -3780 3867 0
-3869 -3781 0
-3869 -3868 0
3869 3781 3868 0
-3870 3782 0
-3870 3869 0
3870 -3782 -3869 0
-3871 3782 0
-3871 -3870 0
3871 -3782 3870 0
-3872 -3783 0
-3872 -3871 0
3872 3783 3871 0
-3873 3784 0
-3873 3872 0
3873 -3784 -3872 0
-3874 3784 0
-3874 -3873 0
3874 -3784 3873 0
-3875 -3785 0
-3875 -3874 0
3875 3785 3874 0
-3876 3786 0
-3876 3875 0
3876 -3786 -3875 0
-3877 3786 0
-3877 -3876 0
3877 -3786 3876 0
-3878 -3787 0
-3878 -3877 0
3878 3787 3877 0
-3879 3788 0
-3879 3878 0
3879 -3788 -3878 0
-3880 3788 0
-3880 -3879 0
3880 -3788 3879 0
-3881 -3789 0
-3881 -3880 0
3881 3789 3880 0
-3882 3790 0
-3882 3881 0
3882 -3790 -3881 0
-3883 3790 0
-3883 -3882 0
3883 -3790 3882 0
-3884 -3791 0
-3884 -3883 0
3884 3791 3883 0
-3885 3792 0
-3885 3884 0
3885 -3792 -3884 0
-3886 3792 0
-3886 -3885 0
3886 -3792 3885 0
-3887 -3793 0
-3887 -3886 0
3887 3793 3886 0
-3888 3730 0
-3888 -3887 0
3888 -3730 3887 0
-3889 3729 0
-3889 -3888 0
3889 -3729 3888 0
3890 -7618 0
-3890 7618 0
-3891 3889 0
-3891 3890 0
3891 -3889 -3890 0
3955 -7682 0
-3955 7682 0
3954 -7681 0
-3954 7681 0
3953 -7680 0
-3953 7680 0
3952 -7679 0
-3952 7679 0
3951 -7678 0
-3951 7678 0
3950 -7677 0
-3950 7677 0
3949 -7676 0
-3949 7676 0
3948 -7675 0
-3948 7675 0
3947 -7674 0
-3947 7674 0
3946 -7673 0
-3946 7673 0
3945 -7672 0
-3945 7672 0
3944 -7671 0
-3944 7671 0
3943 -7670 0
-3943 7670 0
3942 -7669 0
-3942 7669 0
3941 -7668 0
-3941 7668 0
3940 -7667 0
-3940 7667 0
3939 -7666 0
-3939 7666 0
3938 -7665 0
-3938 7665 0
3937 -7664 0
-3937 7664 0
3936 -7663 0
-3936 7663 0
3935 -7662 0
-3935 7662 0
3934 -7661 0
-3934 7661 0
3933 -7660 0
-3933 7660 0
3932 -7659 0
-3932 7659 0
3931 -7658 0
-3931 7658 0
3930 -7657 0
-3930 7657 0
3929 -7656 0
-3929 7656 0
3928 -7655 0
-3928 7655 0
3927 -7654 0
-3927 7654 0
3926 -7653 0
-3926 7653 0
3925 -7652 0
-3925 7652 0
3924 -7651 0
-3924 7651 0
3923 -7650 0
-3923 7650 0
3922 -7649 0
-3922 7649 0
3921 -7648 0
-3921 7648 0
3920 -7647 0
-3920 7647 0
3919 -7646 0
-3919 7646 0
3918 -7645 0
-3918 7645 0
3917 -7644 0
-3917 7644 0
3916 -7643 0
-3916 7643 0
3915 -7642 0
-3915 7642 0
3914 -7641 0
-3914 7641 0
3913 -7640 0
-3913 7640 0
3912 -7639 0
-3912 7639 0
3911 -7638 0
-3911 7638 0
3910 -7637 0
-3910 7637 0
3909 -7636 0
-3909 7636 0
3908 -7635 0
-3908 7635 0
3907 -7634 0
-3907 7634 0
3906 -7633 0
-3906 7633 0
3905 -7632 0
-3905 7632 0
3904 -7631 0
-3904 7631 0
3903 -7630 0
-3903 7630 0
3902 -7629 0
-3902 7629 0
3901 -7628 0
-3901 7628 0
3900 -7627 0
-3900 7627 0
3899 -7626 0
-3899 7626 0
3898 -7625 0
-3898 7625 0
3897 -7624 0
-3897 7624 0
3896 -7623 0
-3896 7623 0
3895 -7622 0
-3895 7622 0
3894 -7621 0
-3894 7621 0
3893 -7620 0
-3893 7620 0
-3956 -3892 0
-3956 -3893 0
3956 3892 3893 0
-3957 3894 0
-3957 3956 0
3957 -3894 -3956 0
-3958 3894 0
-3958 -3957 0
3958 -3894 3957 0
-3959 -3895 0
-3959 -3958 0
3959 3895 3958 0
-3960 3896 0
-3960 3959 0
3960 -3896 -3959 0
-3961 3896 0
-3961 -3960 0
3961 -3896 3960 0
-3962 -3897 0
-3962 -3961 0
3962 3897 3961 0
-3963 3898 0
-3963 3962 0
3963 -3898 -3962 0
-3964 3898 0
-3964 -3963 0
3964 -3898 3963 0
-3965 -3899 0
-3965 -3964 0
3965 3899 3964 0
-3966 3900 0
-3966 3965 0
3966 -3900 -3965 0
-3967 3900 0
-3967 -3966 0
3967 -3900 3966 0
-3968 -3901 0
-3968 -3967 0
3968 3901 3967 0
-3969 3902 0
-3969 3968 0
3969 -3902 -3968 0
-3970 3902 0
-3970 -3969 0
3970 -3902 3969 0
-3971 -3903 0
-3971 -3970 0
3971 3903 3970 0
-3972 3904 0
-3972 3971 0
3972 -3904 -3971 0
-3973 3904 0
-3973 -3972 0
3973 -3904 3972 0
-3974 -3905 0
-3974 -3973 0
3974 3905 3973 0
-3975 3906 0
-3975 3974 0
3975 -3906 -3974 0
-3976 3906 0
-3976 -3975 0
3976 -3906 3975 0
-3977 -3907 0
-3977 -3976 0
3977 3907 3976 0
-3978 3908 0
-3978 3977 0
3978 -3908 -3977 0
-3979 3908 0
-3979 -3978 0
3979 -3908 3978 0
-3980 -3909 0
-3980 -3979 0
3980 3909 3979 0
-3981 3910 0
-3981 3980 0
3981 -3910 -3980 0
-3982 3910 0
-3982 -3981 0
3982 -3910 3981 0
-3983 -3911 0
-3983 -3982 0
3983 3911 3982 0
-3984 3912 0
-3984 3983 0
3984 -3912 -3983 0
-3985 3912 0
-3985 -3984 0
3985 -3912 3984 0
-3986 -3913 0
-3986 -3985 0
3986 3913 3985 0
-3987 3914 0
-3987 3986 0
3987 -3914 -3986 0
-3988 3914 0
-3988 -3987 0
3988 -3914 3987 0
-3989 -3915 0
-3989 -3988 0
3989 3915 3988 0
-3990 3916 0
-3990 3989 0
3990 -3916 -3989 0
-3991 3916 0
-3991 -3990 0
3991 -3916 3990 0
-3992 -3917 0
-3992 -3991 0
3992 3917 3991 0
-3993 3918 0
-3993 3992 0
3993 -3918 -3992 0
-3994 3918 0
-3994 -3993 0
3994 -3918 3993 0
-3995 -3919 0
-3995 -3994 0
3995 3919 3994 0
-3996 3920 0
-3996 3995 0
3996 -3920 -3995 0
-3997 3920 0
-3997 -3996 0
3997 -3920 3996 0
-3998 -3921 0
-3998 -3997 0
3998 3921 3997 0
-3999 3922 0
-3999 3998 0
3999 -3922 -3998 0
-4000 3922 0
-4000 -3999 0
4000 -3922 3999 0
-4001 -3923 0
-4001 -4000 0
4001 3923 4000 0
-4002 3924 0
-4002 4001 0
4002 -3924 -4001 0
-4003 3924 0
-4003 -4002 0
4003 -3924 4002 0
-4004 -3925 0
-4004 -4003 0
4004 3925 4003 0
-4005 3926 0
-4005 4004 0
4005 -3926 -4004 0
-4006 3926 0
-4006 -4005 0
4006 -3926 4005 0
-4007 -3927 0
-4007 -4006 0
4007 3927 4006 0
-4008 3928 0
-4008 4007 0
4008 -3928 -4007 0
-4009 3928 0
-4009 -4008 0
4009 -3928 4008 0
-4010 -3929 0
-4010 -4009 0
4010 3929 4009 0
-4011 3930 0
-4011 4010 0
4011 -3930 -4010 0
-4012 3930 0
-4012 -4011 0
4012 -3930 4011 0
-4013 -3931 0
-4013 -4012 0
4013 3931 4012 0
-4014 3932 0
-4014 4013 0
4014 -3932 -4013 0
-4015 3932 0
-4015 -4014 0
4015 -3932 4014 0
-4016 -3933 0
-4016 -4015 0
4016 3933 4015 0
-4017 3934 0
-4017 4016 0
4017 -3934 -4016 0
-4018 3934 0
-4018 -4017 0
4018 -3934 4017 0
-4019 -3935 0
-4019 -4018 0
4019 3935 4018 0
-4020 3936 0
-4020 4019 0
4020 -3936 -4019 0
-4021 3936 0
-4021 -4020 0
4021 -3936 4020 0
-4022 -3937 0
-4022 -4021 0
4022 3937 4021 0
-4023 3938 0
-4023 4022 0
4023 -3938 -4022 0
-4024 3938 0
-4024 -4023 0
4024 -3938 4023 0
-4025 -3939 0
-4025 -4024 0
4025 3939 4024 0
-4026 3940 0
-4026 4025 0
4026 -3940 -4025 0
-4027 3940 0
-4027 -4026 0
4027 -3940 4026 0
-4028 -3941 0
-4028 -4027 0
4028 3941 4027 0
-4029 3942 0
-4029 4028 0
4029 -3942 -4028 0
-4030 3942 0
-4030 -4029 0
4030 -3942 4029 0
-4031 -3943 0
-4031 -4030 0
4031 3943 4030 0
-4032 3944 0
-4032 4031 0
4032 -3944 -4031 0
-4033 3944 0
-4033 -4032 0
4033 -3944 4032 0
-4034 -3945 0
-4034 -4033 0
4034 3945 4033 0
-4035 3946 0
-4035 4034 0
4035 -3946 -4034 0
-4036 3946 0
-4036 -4035 0
4036 -3946 4035 0
-4037 -3947 0
-4037 -4036 0
4037 3947 4036 0
-4038 3948 0
-4038 4037 0
4038 -3948 -4037 0
-4039 3948 0
-4039 -4038 0
4039 -3948 4038 0
-4040 -3949 0
-4040 -4039 0
4040 3949 4039 0
-4041 3950 0
-4041 4040 0
4041 -3950 -4040 0
-4042 3950 0
-4042 -4041 0
4042 -3950 4041 0
-4043 -3951 0
-4043 -4042 0
4043 3951 4042 0
-4044 3952 0
-4044 4043 0
4044 -3952 -4043 0
-4045 3952 0
-4045 -4044 0
4045 -3952 4044 0
-4046 -3953 0
-4046 -4045 0
4046 3953 4045 0
-4047 3954 0
-4047 4046 0
4047 -3954 -4046 0
-4048 3954 0
-4048 -4047 0
4048 -3954 4047 0
-4049 -3955 0
-4049 -4048 0
4049 3955 4048 0
-4050 3892 0
-4050 -4049 0
4050 -3892 4049 0
-4051 3891 0
-4051 -4050 0
4051 -3891 4050 0
4052 -7683 0
-4052 7683 0
-4053 4051 0
-4053 4052 0
4053 -4051 -4052 0
4117 -7747 0
-4117 7747 0
4116 -7746 0
-4116 7746 0
4115 -7745 0
-4115 7745 0
4114 -7744 0
-4114 7744 0
4113 -7743 0
-4113 7743 0
4112 -7742 0
-4112 7742 0
4111 -7741 0
-4111 7741 0
4110 -7740 0
-4110 7740 0
4109 -7739 0
-4109 7739 0
4108 -7738 0
-4108 7738 0
4107 -7737 0
-4107 7737 0
4106 -7736 0
-4106 7736 0
4105 -7735 0
-4105 7735 0
4104 -7734 0
-4104 7734 0
4103 -7733 0
-4103 7733 0
4102 -7732 0
-4102 7732 0
4101 -7731 0
-4101 7731 0
4100 -7730 0
-4100 7730 0
4099 -7729 0
-4099 7729 0
4098 -7728 0
-4098 7728 0
4097 -7727 0
-4097 7727 0
4096 -7726 0
-4096 7726 0
4095 -7725 0
-4095 7725 0
4094 -7724 0
-4094 7724 0
4093 -7723 0
-4093 7723 0
4092 -7722 0
-4092 7722 0
4091 -7721 0
-4091 7721 0
4090 -7720 0
-4090 7720 0
4089 -7719 0
-4089 7719 0
4088 -7718 0
-4088 7718 0
4087 -7717 0
-4087 7717 0
4086 -7716 0
-4086 7716 0
4085 -7715 0
-4085 7715 0
4084 -7714 0
-4084 7714 0
4083 -7713 0
-4083 7713 0
4082 -7712 0
-4082 7712 0
4081 -7711 0
-4081 7711 0
4080 -7710 0
-4080 7710 0
4079 -7709 0
-4079 7709 0
4078 -7708 0
-4078 7708 0
4077 -7707 0
-4077 7707 0
4076 -7706 0
-4076 7706 0
4075 -7705 0
-4075 7705 0
4074 -7704 0
-4074 7704 0
4073 -7703 0
-4073 7703 0
4072 -7702 0
-4072 7702 0
4071 -7701 0
-4071 7701 0
4070 -7700 0
-4070 7700 0
4069 -7699 0
-4069 7699 0
4068 -7698 0
-4068 7698 0
4067 -7697 0
-4067 7697 0
4066 -7696 0
-4066 7696 0
4065 -7695 0
-4065 7695 0
4064 -7694 0
-4064 7694 0
4063 -7693 0
-4063 7693 0
4062 -7692 0
-4062 7692 0
4061 -7691 0
-4061 7691 0
4060 -7690 0
-4060 7690 0
4059 -7689 0
-4059 7689 0
4058 -7688 0
-4058 7688 0
4057 -7687 0
-4057 7687 0
4056 -7686 0
-4056 7686 0
4055 -7685 0
-4055 7685 0
-4118 -4054 0
-4118 -4055 0
4118 4054 4055 0
-4119 4056 0
-4119 4118 0
4119 -4056 -4118 0
-4120 4056 0
-4120 -4119 0
4120 -4056 4119 0
-4121 -4057 0
-4121 -4120 0
4121 4057 4120 0
-4122 4058 0
-4122 4121 0
4122 -4058 -4121 0
-4123 4058 0
-4123 -4122 0
4123 -4058 4122 0
-4124 -4059 0
-4124 -4123 0
4124 4059 4123 0
-4125 4060 0
-4125 4124 0
4125 -4060 -4124 0
-4126 4060 0
-4126 -4125 0
4126 -4060 4125 0
-4127 -4061 0
-4127 -4126 0
4127 4061 4126 0
-4128 4062 0
-4128 4127 0
4128 -4062 -4127 0
-4129 4062 0
-4129 -4128 0
4129 -4062 4128 0
-4130 -4063 0
-4130 -4129 0
4130 4063 4129 0
-4131 4064 0
-4131 4130 0
4131 -4064 -4130 0
-4132 4064 0
-4132 -4131 0
4132 -4064 4131 0
-4133 -4065 0
-4133 -4132 0
4133 4065 4132 0
-4134 4066 0
-4134 4133 0
4134 -4066 -4133 0
-4135 4066 0
-4135 -4134 0
4135 -4066 4134 0
-4136 -4067 0
-4136 -4135 0
4136 4067 4135 0
-4137 4068 0
-4137 4136 0
4137 -4068 -4136 0
-4138 4068 0
-4138 -4137 0
4138 -4068 4137 0
-4139 -4069 0
-4139 -4138 0
4139 4069 4138 0
-4140 4070 0
-4140 4139 0
4140 -4070 -4139 0
-4141 4070 0
-4141 -4140 0
4141 -4070 4140 0
-4142 -4071 0
-4142 -4141 0
4142 4071 4141 0
-4143 4072 0
-4143 4142 0
4143 -4072 -4142 0
-4144 4072 0
-4144 -4143 0
4144 -4072 4143 0
-4145 -4073 0
-4145 -4144 0
4145 4073 4144 0
-4146 4074 0
-4146 4145 0
4146 -4074 -4145 0
-4147 4074 0
-4147 -4146 0
4147 -4074 4146 0
-4148 -4075 0
-4148 -4147 0
4148 4075 4147 0
-4149 4076 0
-4149 4148 0
4149 -4076 -4148 0
-4150 4076 0
-4150 -4149 0
4150 -4076 4149 0
-4151 -4077 0
-4151 -4150 0
4151 4077 4150 0
-4152 4078 0
-4152 4151 0
4152 -4078 -4151 0
-4153 4078 0
-4153 -4152 0
4153 -4078 4152 0
-4154 -4079 0
-4154 -4153 0
4154 4079 4153 0
-4155 4080 0
-4155 4154 0
4155 -4080 -4154 0
-4156 4080 0
-4156 -4155 0
4156 -4080 4155 0
-4157 -4081 0
-4157 -4156 0
4157 4081 4156 0
-4158 4082 0
-4158 4157 0
4158 -4082 -4157 0
-4159 4082 0
-4159 -4158 0
4159 -4082 4158 0
-4160 -4083 0
-4160 -4159 0
4160 4083 4159 0
-4161 4084 0
-4161 4160 0
4161 -4084 -4160 0
-4162 4084 0
-4162 -4161 0
4162 -4084 4161 0
-4163 -4085 0
-4163 -4162 0
4163 4085 4162 0
-4164 4086 0
-4164 4163 0
4164 -4086 -4163 0
-4165 4086 0
-4165 -4164 0
4165 -4086 4164 0
-4166 -4087 0
-4166 -4165 0
4166 4087 4165 0
-4167 4088 0
-4167 4166 0
4167 -4088 -4166 0
-4168 4088 0
-4168 -4167 0
4168 -4088 4167 0
-4169 -4089 0
-4169 -4168 0
4169 4089 4168 0
-4170 4090 0
-4170 4169 0
4170 -4090 -4169 0
-4171 4090 0
-4171 -4170 0
4171 -4090 4170 0
-4172 -4091 0
-4172 -4171 0
4172 4091 4171 0
-4173 4092 0
-4173 4172 0
4173 -4092 -4172 0
-4174 4092 0
-4174 -4173 0
4174 -4092 4173 0
-4175 -4093 0
-4175 -4174 0
4175 4093 4174 0
-4176 4094 0
-4176 4175 0
4176 -4094 -4175 0
-4177 4094 0
-4177 -4176 0
4177 -4094 4176 0
-4178 -4095 0
-4178 -4177 0
4178 4095 4177 0
-4179 4096 0
-4179 4178 0
4179 -4096 -4178 0
-4180 4096 0
-4180 -4179 0
4180 -4096 4179 0
-4181 -4097 0
-4181 -4180 0
4181 4097 4180 0
-4182 4098 0
-4182 4181 0
4182 -4098 -4181 0
-4183 4098 0
-4183 -4182 0
4183 -4098 4182 0
-4184 -4099 0
-4184 -4183 0
4184 4099 4183 0
-4185 4100 0
-4185 4184 0
4185 -4100 -4184 0
-4186 4100 0
-4186 -4185 0
4186 -4100 4185 0
-4187 -4101 0
-4187 -4186 0
4187 4101 4186 0
-4188 4102 0
-4188 4187 0
4188 -4102 -4187 0
-4189 4102 0
-4189 -4188 0
4189 -4102 4188 0
-4190 -4103 0
-4190 -4189 0
4190 4103 4189 0
-4191 4104 0
-4191 4190 0
4191 -4104 -4190 0
-4192 4104 0
-4192 -4191 0
4192 -4104 4191 0
-4193 -4105 0
-4193 -4192 0
4193 4105 4192 0
-4194 4106 0
-4194 4193 0
4194 -4106 -4193 0
-4195 4106 0
-4195 -4194 0
4195 -4106 4194 0
-4196 -4107 0
-4196 -4195 0
4196 4107 4195 0
-4197 4108 0
-4197 4196 0
4197 -4108 -4196 0
-4198 4108 0
-4198 -4197 0
4198 -4108 4197 0
-4199 -4109 0
-4199 -4198 0
4199 4109 4198 0
-4200 4110 0
-4200 4199 0
4200 -4110 -4199 0
-4201 4110 0
-4201 -4200 0
4201 -4110 4200 0
-4202 -4111 0
-4202 -4201 0
4202 4111 4201 0
-4203 4112 0
-4203 4202 0
4203 -4112 -4202 0
-4204 4112 0
-4204 -4203 0
4204 -4112 4203 0
-4205 -4113 0
-4205 -4204 0
4205 4113 4204 0
-4206 4114 0
-4206 4205 0
4206 -4114 -4205 0
-4207 4114 0
-4207 -4206 0
4207 -4114 4206 0
-4208 -4115 0
-4208 -4207 0
4208 4115 4207 0
-4209 4116 0
-4209 4208 0
4209 -4116 -4208 0
-4210 4116 0
-4210 -4209 0
4210 -4116 4209 0
-4211 -4117 0
-4211 -4210 0
4211 4117 4210 0
-4212 4054 0
-4212 -4211 0
4212 -4054 4211 0
-4213 4053 0
-4213 -4212 0
4213 -4053 4212 0
4214 -7748 0
-4214 7748 0
-4215 4213 0
-4215 4214 0
4215 -4213 -4214 0
4279 -7812 0
-4279 7812 0
4278 -7811 0
-4278 7811 0
4277 -7810 0
-4277 7810 0
4276 -7809 0
-4276 7809 0
4275 -7808 0
-4275 7808 0
4274 -7807 0
-4274 7807 0
4273 -7806 0
-4273 7806 0
4272 -7805 0
-4272 7805 0
4271 -7804 0
-4271 7804 0
4270 -7803 0
-4270 7803 0
4269 -7802 0
-4269 7802 0
4268 -7801 0
-4268 7801 0
4267 -7800 0
-4267 7800 0
4266 -7799 0
-4266 7799 0
4265 -7798 0
-4265 7798 0
4264 -7797 0
-4264 7797 0
4263 -7796 0
-4263 7796 0
4262 -7795 0
-4262 7795 0
4261 -7794 0
-4261 7794 0
4260 -7793 0
-4260 7793 0
4259 -7792 0
-4259 7792 0
4258 -7791 0
-4258 7791 0
4257 -7790 0
-4257 7790 0
4256 -7789 0
-4256 7789 0
4255 -7788 0
-4255 7788 0
4254 -7787 0
-4254 7787 0
4253 -7786 0
-4253 7786 0
4252 -7785 0
-4252 7785 0
4251 -7784 0
-4251 7784 0
4250 -7783 0
-4250 7783 0
4249 -7782 0
-4249 7782 0
4248 -7781 0
-4248 7781 0
4247 -7780 0
-4247 7780 0
4246 -7779 0
-4246 7779 0
4245 -7778 0
-4245 7778 0
4244 -7777 0
-4244 7777 0
4243 -7776 0
-4243 7776 0
4242 -7775 0
-4242 7775 0
4241 -7774 0
-4241 7774 0
4240 -7773 0
-4240 7773 0
4239 -7772 0
-4239 7772 0
4238 -7771 0
-4238 7771 0
4237 -7770 0
-4237 7770 0
4236 -7769 0
-4236 7769 0
4235 -7768 0
-4235 7768 0
4234 -7767 0
-4234 7767 0
4233 -7766 0
-4233 7766 0
4232 -7765 0
-4232 7765 0
4231 -7764 0
-4231 7764 0
4230 -7763 0
-4230 7763 0
4229 -7762 0
-4229 7762 0
4228 -7761 0
-4228 7761 0
4227 -7760 0
-4227 7760 0
4226 -7759 0
-4226 7759 0
4225 -7758 0
-4225 7758 0
4224 -7757 0
-4224 7757 0
4223 -7756 0
-4223 7756 0
4222 -7755 0
-4222 7755 0
4221 -7754 0
-4221 7754 0
4220 -7753 0
-4220 7753 0
4219 -7752 0
-4219 7752 0
4218 -7751 0
-4218 7751 0
4217 -7750 0
-4217 7750 0
-4280 -4216 0
-4280 -4217 0
4280 4216 4217 0
-4281 4218 0
-4281 4280 0
4281 -4218 -4280 0
-4282 4218 0
-4282 -4281 0
4282 -4218 4281 0
-4283 -4219 0
-4283 -4282 0
4283 4219 4282 0
-4284 4220 0
-4284 4283 0
4284 -4220 -4283 0
-4285 4220 0
-4285 -4284 0
4285 -4220 4284 0
-4286 -4221 0
-4286 -4285 0
4286 4221 4285 0
-4287 4222 0
-4287 4286 0
4287 -4222 -4286 0
-4288 4222 0
-4288 -4287 0
4288 -4222 4287 0
-4289 -4223 0
-4289 -4288 0
4289 4223 4288 0
-4290 4224 0
-4290 4289 0
4290 -4224 -4289 0
-4291 4224 0
-4291 -4290 0
4291 -4224 4290 0
-4292 -4225 0
-4292 -4291 0
4292 4225 4291 0
-4293 4226 0
-4293 4292 0
4293 -4226 -4292 0
-4294 4226 0
-4294 -4293 0
4294 -4226 4293 0
-4295 -4227 0
-4295 -4294 0
4295 4227 4294 0
-4296 4228 0
-4296 4295 0
4296 -4228 -4295 0
-4297 4228 0
-4297 -4296 0
4297 -4228 4296 0
-4298 -4229 0
-4298 -4297 0
4298 4229 4297 0
-4299 4230 0
-4299 4298 0
4299 -4230 -4298 0
-4300 4230 0
-4300 -4299 0
4300 -4230 4299 0
-4301 -4231 0
-4301 -4300 0
4301 4231 4300 0
-4302 4232 0
-4302 4301 0
4302 -4232 -4301 0
-4303 4232 0
-4303 -4302 0
4303 -4232 4302 0
-4304 -4233 0
-4304 -4303 0
4304 4233 4303 0
-4305 4234 0
-4305 4304 0
4305 -4234 -4304 0
-4306 4234 0
-4306 -4305 0
4306 -4234 4305 0
-4307 -4235 0
-4307 -4306 0
4307 4235 4306 0
-4308 4236 0
-4308 4307 0
4308 -4236 -4307 0
-4309 4236 0
-4309 -4308 0
4309 -4236 4308 0
-4310 -4237 0
-4310 -4309 0
4310 4237 4309 0
-4311 4238 0
-4311 4310 0
4311 -4238 -4310 0
-4312 4238 0
-4312 -4311 0
4312 -4238 4311 0
-4313 -4239 0
-4313 -4312 0
4313 4239 4312 0
-4314 4240 0
-4314 4313 0
4314 -4240 -4313 0
-4315 4240 0
-4315 -4314 0
4315 -4240 4314 0
-4316 -4241 0
-4316 -4315 0
4316 4241 4315 0
-4317 4242 0
-4317 4316 0
4317 -4242 -4316 0
-4318 4242 0
-4318 -4317 0
4318 -4242 4317 0
-4319 -4243 0
-4319 -4318 0
4319 4243 4318 0
-4320 4244 0
-4320 4319 0
4320 -4244 -4319 0
-4321 4244 0
-4321 -4320 0
4321 -4244 4320 0
-4322 -4245 0
-4322 -4321 0
4322 4245 4321 0
-4323 4246 0
-4323 4322 0
4323 -4246 -4322 0
-4324 4246 0
-4324 -4323 0
4324 -4246 4323 0
-4325 -4247 0
-4325 -4324 0
4325 4247 4324 0
-4326 4248 0
-4326 4325 0
4326 -4248 -4325 0
-4327 4248 0
-4327 -4326 0
4327 -4248 4326 0
-4328 -4249 0
-4328 -4327 0
4328 4249 4327 0
-4329 4250 0
-4329 4328 0
4329 -4250 -4328 0
-4330 4250 0
-4330 -4329 0
4330 -4250 4329 0
-4331 -4251 0
-4331 -4330 0
4331 4251 4330 0
-4332 4252 0
-4332 4331 0
4332 -4252 -4331 0
-4333 4252 0
-4333 -4332 0
4333 -4252 4332 0
-4334 -4253 0
-4334 -4333 0
4334 4253 4333 0
-4335 4254 0
-4335 4334 0
4335 -4254 -4334 0
-4336 4254 0
-4336 -4335 0
4336 -4254 4335 0
-4337 -4255 0
-4337 -4336 0
4337 4255 4336 0
-4338 4256 0
-4338 4337 0
4338 -4256 -4337 0
-4339 4256 0
-4339 -4338 0
4339 -4256 4338 0
-4340 -4257 0
-4340 -4339 0
4340 4257 4339 0
-4341 4258 0
-4341 4340 0
4341 -4258 -4340 0
-4342 4258 0
-4342 -4341 0
4342 -4258 4341 0
-4343 -4259 0
-4343 -4342 0
4343 4259 4342 0
-4344 4260 0
-4344 4343 0
4344 -4260 -4343 0
-4345 4260 0
-4345 -4344 0
4345 -4260 4344 0
-4346 -4261 0
-4346 -4345 0
4346 4261 4345 0
-4347 4262 0
-4347 4346 0
4347 -4262 -4346 0
-4348 4262 0
-4348 -4347 0
4348 -4262 4347 0
-4349 -4263 0
-4349 -4348 0
4349 4263 4348 0
-4350 4264 0
-4350 4349 0
4350 -4264 -4349 0
-4351 4264 0
-4351 -4350 0
4351 -4264 4350 0
-4352 -4265 0
-4352 -4351 0
4352 4265 4351 0
-4353 4266 0
-4353 4352 0
4353 -4266 -4352 0
-4354 4266 0
-4354 -4353 0
4354 -4266 4353 0
-4355 -4267 0
-4355 -4354 0
4355 4267 4354 0
-4356 4268 0
-4356 4355 0
4356 -4268 -4355 0
-4357 4268 0
-4357 -4356 0
4357 -4268 4356 0
-4358 -4269 0
-4358 -4357 0
4358 4269 4357 0
-4359 4270 0
-4359 4358 0
4359 -4270 -4358 0
-4360 4270 0
-4360 -4359 0
4360 -4270 4359 0
-4361 -4271 0
-4361 -4360 0
4361 4271 4360 0
-4362 4272 0
-4362 4361 0
4362 -4272 -4361 0
-4363 4272 0
-4363 -4362 0
4363 -4272 4362 0
-4364 -4273 0
-4364 -4363 0
4364 4273 4363 0
-4365 4274 0
-4365 4364 0
4365 -4274 -4364 0
-4366 4274 0
-4366 -4365 0
4366 -4274 4365 0
-4367 -4275 0
-4367 -4366 0
4367 4275 4366 0
-4368 4276 0
-4368 4367 0
4368 -4276 -4367 0
-4369 4276 0
-4369 -4368 0
4369 -4276 4368 0
-4370 -4277 0
-4370 -4369 0
4370 4277 4369 0
-4371 4278 0
-4371 4370 0
4371 -4278 -4370 0
-4372 4278 0
-4372 -4371 0
4372 -4278 4371 0
-4373 -4279 0
-4373 -4372 0
4373 4279 4372 0
-4374 4216 0
-4374 -4373 0
4374 -4216 4373 0
-4375 4215 0
-4375 -4374 0
4375 -4215 4374 0
4376 -7813 0
-4376 7813 0
-4377 4375 0
-4377 4376 0
4377 -4375 -4376 0
-4380 4377 0
-4380 -4379 0
4380 -4377 4379 0
-4382 4380 0
-4382 -4381 0
4382 -4380 4381 0
-4388 4382 0
-4388 -4387 0
4388 -4382 4387 0
-4390 4388 0
-4390 -4389 0
4390 -4388 4389 0
-4396 4390 0
-4396 -4395 0
4396 -4390 4395 0
-4398 4396 0
-4398 -4397 0
4398 -4396 4397 0
-4404 4398 0
-4404 -4403 0
4404 -4398 4403 0
-4406 4404 0
-4406 -4405 0
4406 -4404 4405 0
-4412 4406 0
-4412 -4411 0
4412 -4406 4411 0
-4414 4412 0
-4414 -4413 0
4414 -4412 4413 0
-4420 4414 0
-4420 -4419 0
4420 -4414 4419 0
-4422 4420 0
-4422 -4421 0
4422 -4420 4421 0
-4428 4422 0
-4428 -4427 0
4428 -4422 4427 0
-4430 4428 0
-4430 -4429 0
4430 -4428 4429 0
-4436 4430 0
-4436 -4435 0
4436 -4430 4435 0
-4438 4436 0
-4438 -4437 0
4438 -4436 4437 0
-4444 4438 0
-4444 -4443 0
4444 -4438 4443 0
-4446 4444 0
-4446 -4445 0
4446 -4444 4445 0
-4452 4446 0
-4452 -4451 0
4452 -4446 4451 0
-4454 4452 0
-4454 -4453 0
4454 -4452 4453 0
-4460 4454 0
-4460 -4459 0
4460 -4454 4459 0
-4462 4460 0
-4462 -4461 0
4462 -4460 4461 0
-4468 4462 0
-4468 -4467 0
4468 -4462 4467 0
-4470 4468 0
-4470 -4469 0
4470 -4468 4469 0
-4476 4470 0
-4476 -4475 0
4476 -4470 4475 0
-4478 4476 0
-4478 -4477 0
4478 -4476 4477 0
-4484 4478 0
-4484 -4483 0
4484 -4478 4483 0
-4486 4484 0
-4486 -4485 0
4486 -4484 4485 0
-4492 4486 0
-4492 -4491 0
4492 -4486 4491 0
-4494 4492 0
-4494 -4493 0
4494 -4492 4493 0
-4500 4494 0
-4500 -4499 0
4500 -4494 4499 0
-4502 4500 0
-4502 -4501 0
4502 -4500 4501 0
-4508 4502 0
-4508 -4507 0
4508 -4502 4507 0
-4510 4508 0
-4510 -4509 0
4510 -4508 4509 0
-4516 4510 0
-4516 -4515 0
4516 -4510 4515 0
-4518 4516 0
-4518 -4517 0
4518 -4516 4517 0
-4524 4518 0
-4524 -4523 0
4524 -4518 4523 0
-4526 4524 0
-4526 -4525 0
4526 -4524 4525 0
-4532 4526 0
-4532 -4531 0
4532 -4526 4531 0
-4534 4532 0
-4534 -4533 0
4534 -4532 4533 0
-4540 4534 0
-4540 -4539 0
4540 -4534 4539 0
-4542 4540 0
-4542 -4541 0
4542 -4540 4541 0
-4548 4542 0
-4548 -4547 0
4548 -4542 4547 0
-4550 4548 0
-4550 -4549 0
4550 -4548 4549 0
-4556 4550 0
-4556 -4555 0
4556 -4550 4555 0
-4558 4556 0
-4558 -4557 0
4558 -4556 4557 0
-4564 4558 0
-4564 -4563 0
4564 -4558 4563 0
-4566 4564 0
-4566 -4565 0
4566 -4564 4565 0
-4572 4566 0
-4572 -4571 0
4572 -4566 4571 0
-4574 4572 0
-4574 -4573 0
4574 -4572 4573 0
-4575 166 0
-4575 -4570 0
4575 -166 4570 0
-4576 -166 0
-4576 4570 0
4576 166 -4570 0
-4577 -4575 0
-4577 -4576 0
4577 4575 4576 0
4578 -7839 0
-4578 7839 0
-4579 4577 0
-4579 4578 0
4579 -4577 -4578 0
-4580 4574 0
-4580 -4579 0
4580 -4574 4579 0
-4581 -4577 0
-4581 -4578 0
4581 4577 4578 0
-4582 4580 0
-4582 -4581 0
4582 -4580 4581 0
-4583 2 0
-4583 -4578 0
4583 -2 4578 0
-4584 -2 0
-4584 4578 0
4584 2 -4578 0
-4585 -4583 0
-4585 -4584 0
4585 4583 4584 0
-4586 4582 0
-4586 -4585 0
4586 -4582 4585 0
-4587 -4379 0
-4587 4586 0
4587 4379 -4586 0
-4588 -4381 0
-4588 4587 0
4588 4381 -4587 0
-4589 -4387 0
-4589 4588 0
4589 4387 -4588 0
-4590 -4389 0
-4590 4589 0
4590 4389 -4589 0
-4591 -4395 0
-4591 4590 0
4591 4395 -4590 0
-4592 -4397 0
-4592 4591 0
4592 4397 -4591 0
-4593 -4403 0
-4593 4592 0
4593 4403 -4592 0
-4594 -4405 0
-4594 4593 0
4594 4405 -4593 0
-4595 -4411 0
-4595 4594 0
4595 4411 -4594 0
-4596 -4413 0
-4596 4595 0
4596 4413 -4595 0
-4597 -4419 0
-4597 4596 0
4597 4419 -4596 0
-4598 -4421 0
-4598 4597 0
4598 4421 -4597 0
-4599 -4427 0
-4599 4598 0
4599 4427 -4598 0
-4600 -4429 0
-4600 4599 0
4600 4429 -4599 0
-4601 -4435 0
-4601 4600 0
4601 4435 -4600 0
-4602 -4437 0
-4602 4601 0
4602 4437 -4601 0
-4603 -4443 0
-4603 4602 0
4603 4443 -4602 0
-4604 -4445 0
-4604 4603 0
4604 4445 -4603 0
-4605 -4451 0
-4605 4604 0
4605 4451 -4604 0
-4606 -4453 0
-4606 4605 0
4606 4453 -4605 0
-4607 -4459 0
-4607 4606 0
4607 4459 -4606 0
-4608 -4461 0
-4608 4607 0
4608 4461 -4607 0
-4609 -4467 0
-4609 4608 0
4609 4467 -4608 0
-4610 -4469 0
-4610 4609 0
4610 4469 -4609 0
-4611 -4475 0
-4611 4610 0
4611 4475 -4610 0
-4612 -4477 0
-4612 4611 0
4612 4477 -4611 0
-4613 -4483 0
-4613 4612 0
4613 4483 -4612 0
-4614 -4485 0
-4614 4613 0
4614 4485 -4613 0
-4615 -4491 0
-4615 4614 0
4615 4491 -4614 0
-4616 -4493 0
-4616 4615 0
4616 4493 -4615 0
-4617 -4499 0
-4617 4616 0
4617 4499 -4616 0
-4618 -4501 0
-4618 4617 0
4618 4501 -4617 0
-4619 -4507 0
-4619 4618 0
4619 4507 -4618 0
-4620 -4509 0
-4620 4619 0
4620 4509 -4619 0
-4621 -4515 0
-4621 4620 0
4621 4515 -4620 0
-4622 -4517 0
-4622 4621 0
4622 4517 -4621 0
-4623 -4523 0
-4623 4622 0
4623 4523 -4622 0
-4624 -4525 0
-4624 4623 0
4624 4525 -4623 0
-4625 -4531 0
-4625 4624 0
4625 4531 -4624 0
-4626 -4533 0
-4626 4625 0
4626 4533 -4625 0
-4627 -4539 0
-4627 4626 0
4627 4539 -4626 0
-4628 -4541 0
-4628 4627 0
4628 4541 -4627 0
-4629 -4547 0
-4629 4628 0
4629 4547 -4628 0
-4630 -4549 0
-4630 4629 0
4630 4549 -4629 0
-4631 -4555 0
-4631 4630 0
4631 4555 -4630 0
-4632 -4557 0
-4632 4631 0
4632 4557 -4631 0
-4633 -4563 0
-4633 4632 0
4633 4563 -4632 0
-4634 -4565 0
-4634 4633 0
4634 4565 -4633 0
-4635 -4571 0
-4635 4634 0
4635 4571 -4634 0
-4636 -4573 0
-4636 4635 0
4636 4573 -4635 0
-4637 2 0
-4637 -4577 0
4637 -2 4577 0
-4638 166 0
-4638 -4569 0
4638 -166 4569 0
-4639 328 0
-4639 -4561 0
4639 -328 4561 0
-4640 490 0
-4640 -4553 0
4640 -490 4553 0
-4641 652 0
-4641 -4545 0
4641 -652 4545 0
-4642 814 0
-4642 -4537 0
4642 -814 4537 0
-4643 976 0
-4643 -4529 0
4643 -976 4529 0
-4644 1138 0
-4644 -4521 0
4644 -1138 4521 0
-4645 1300 0
-4645 -4513 0
4645 -1300 4513 0
-4646 1462 0
-4646 -4505 0
4646 -1462 4505 0
-4647 1624 0
-4647 -4497 0
4647 -1624 4497 0
-4648 1786 0
-4648 -4489 0
4648 -1786 4489 0
-4649 1948 0
-4649 -4481 0
4649 -1948 4481 0
-4650 2110 0
-4650 -4473 0
4650 -2110 4473 0
-4651 2272 0
-4651 -4465 0
4651 -2272 4465 0
-4652 2434 0
-4652 -4457 0
4652 -2434 4457 0
-4653 2596 0
-4653 -4449 0
4653 -2596 4449 0
-4654 2758 0
-4654 -4441 0
4654 -2758 4441 0
-4655 2920 0
-4655 -4433 0
4655 -2920 4433 0
-4656 3082 0
-4656 -4425 0
4656 -3082 4425 0
-4657 3244 0
-4657 -4417 0
4657 -3244 4417 0
-4658 3406 0
-4658 -4409 0
4658 -3406 4409 0
-4659 3568 0
-4659 -4401 0
4659 -3568 4401 0
-4660 3730 0
-4660 -4393 0
4660 -3730 4393 0
-4661 3892 0
-4661 -4385 0
4661 -3892 4385 0
-4662 4054 0
-4662 4216 0
4662 -4054 -4216 0
-4663 4661 0
-4663 -4662 0
4663 -4661 4662 0
-4664 -4661 0
-4664 4662 0
4664 4661 -4662 0
-4665 -4663 0
-4665 -4664 0
4665 4663 4664 0
-4666 4660 0
-4666 4665 0
4666 -4660 -4665 0
-4667 -4660 0
-4667 -4665 0
4667 4660 4665 0
-4668 -4666 0
-4668 -4667 0
4668 4666 4667 0
-4669 4659 0
-4669 4668 0
4669 -4659 -4668 0
-4670 -4659 0
-4670 -4668 0
4670 4659 4668 0
-4671 -4669 0
-4671 -4670 0
4671 4669 4670 0
-4672 4658 0
-4672 4671 0
4672 -4658 -4671 0
-4673 -4658 0
-4673 -4671 0
4673 4658 4671 0
-4674 -4672 0
-4674 -4673 0
4674 4672 4673 0
-4675 4657 0
-4675 4674 0
4675 -4657 -4674 0
-4676 -4657 0
-4676 -4674 0
4676 4657 4674 0
-4677 -4675 0
-4677 -4676 0
4677 4675 4676 0
-4678 4656 0
-4678 4677 0
4678 -4656 -4677 0
-4679 -4656 0
-4679 -4677 0
4679 4656 4677 0
-4680 -4678 0
-4680 -4679 0
4680 4678 4679 0
-4681 4655 0
-4681 4680 0
4681 -4655 -4680 0
-4682 -4655 0
-4682 -4680 0
4682 4655 4680 0
-4683 -4681 0
-4683 -4682 0
4683 4681 4682 0
-4684 4654 0
-4684 4683 0
4684 -4654 -4683 0
-4685 -4654 0
-4685 -4683 0
4685 4654 4683 0
-4686 -4684 0
-4686 -4685 0
4686 4684 4685 0
-4687 4653 0
-4687 4686 0
4687 -4653 -4686 0
-4688 -4653 0
-4688 -4686 0
4688 4653 4686 0
-4689 -4687 0
-4689 -4688 0
4689 4687 4688 0
-4690 4652 0
-4690 4689 0
4690 -4652 -4689 0
-4691 -4652 0
-4691 -4689 0
4691 4652 4689 0
-4692 -4690 0
-4692 -4691 0
4692 4690 4691 0
-4693 4651 0
-4693 4692 0
4693 -4651 -4692 0
-4694 -4651 0
-4694 -4692 0
4694 4651 4692 0
-4695 -4693 0
-4695 -4694 0
4695 4693 4694 0
-4696 4650 0
-4696 4695 0
4696 -4650 -4695 0
-4697 -4650 0
-4697 -4695 0
4697 4650 4695 0
-4698 -4696 0
-4698 -4697 0
4698 4696 4697 0
-4699 4649 0
-4699 4698 0
4699 -4649 -4698 0
-4700 -4649 0
-4700 -4698 0
4700 4649 4698 0
-4701 -4699 0
-4701 -4700 0
4701 4699 4700 0
-4702 4648 0
-4702 4701 0
4702 -4648 -4701 0
-4703 -4648 0
-4703 -4701 0
4703 4648 4701 0
-4704 -4702 0
-4704 -4703 0
4704 4702 4703 0
-4705 4647 0
-4705 4704 0
4705 -4647 -4704 0
-4706 -4647 0
-4706 -4704 0
4706 4647 4704 0
-4707 -4705 0
-4707 -4706 0
4707 4705 4706 0
-4708 4646 0
-4708 4707 0
4708 -4646 -4707 0
-4709 -4646 0
-4709 -4707 0
4709 4646 4707 0
-4710 -4708 0
-4710 -4709 0
4710 4708 4709 0
-4711 4645 0
-4711 4710 0
4711 -4645 -4710 0
-4712 -4645 0
-4712 -4710 0
4712 4645 4710 0
-4713 -4711 0
-4713 -4712 0
4713 4711 4712 0
-4714 4644 0
-4714 4713 0
4714 -4644 -4713 0
-4715 -4644 0
-4715 -4713 0
4715 4644 4713 0
-4716 -4714 0
-4716 -4715 0
4716 4714 4715 0
-4717 4643 0
-4717 4716 0
4717 -4643 -4716 0
-4718 -4643 0
-4718 -4716 0
4718 4643 4716 0
-4719 -4717 0
-4719 -4718 0
4719 4717 4718 0
-4720 4642 0
-4720 4719 0
4720 -4642 -4719 0
-4721 -4642 0
-4721 -4719 0
4721 4642 4719 0
-4722 -4720 0
-4722 -4721 0
4722 4720 4721 0
-4723 4641 0
-4723 4722 0
4723 -4641 -4722 0
-4724 -4641 0
-4724 -4722 0
4724 4641 4722 0
-4725 -4723 0
-4725 -4724 0
4725 4723 4724 0
-4726 4640 0
-4726 4725 0
4726 -4640 -4725 0
-4727 -4640 0
-4727 -4725 0
4727 4640 4725 0
-4728 -4726 0
-4728 -4727 0
4728 4726 4727 0
-4729 4639 0
-4729 4728 0
4729 -4639 -4728 0
-4730 -4639 0
-4730 -4728 0
4730 4639 4728 0
-4731 -4729 0
-4731 -4730 0
4731 4729 4730 0
-4732 4638 0
-4732 4731 0
4732 -4638 -4731 0
-4733 -4638 0
-4733 -4731 0
4733 4638 4731 0
-4734 -4732 0
-4734 -4733 0
4734 4732 4733 0
-4735 4637 0
-4735 4734 0
4735 -4637 -4734 0
-4736 -4637 0
-4736 -4734 0
4736 4637 4734 0
-4737 -4735 0
-4737 -4736 0
4737 4735 4736 0
-4738 4636 0
-4738 4737 0
4738 -4636 -4737 0
-4739 -4379 0
-4739 4738 0
4739 4379 -4738 0
-4740 -4381 0
-4740 4739 0
4740 4381 -4739 0
-4741 -4387 0
-4741 4740 0
4741 4387 -4740 0
-4742 -4389 0
-4742 4741 0
4742 4389 -4741 0
-4743 -4395 0
-4743 4742 0
4743 4395 -4742 0
-4744 -4397 0
-4744 4743 0
4744 4397 -4743 0
-4745 -4403 0
-4745 4744 0
4745 4403 -4744 0
-4746 -4405 0
-4746 4745 0
4746 4405 -4745 0
-4747 -4411 0
-4747 4746 0
4747 4411 -4746 0
-4748 -4413 0
-4748 4747 0
4748 4413 -4747 0
-4749 -4419 0
-4749 4748 0
4749 4419 -4748 0
-4750 -4421 0
-4750 4749 0
4750 4421 -4749 0
-4751 -4427 0
-4751 4750 0
4751 4427 -4750 0
-4752 -4429 0
-4752 4751 0
4752 4429 -4751 0
-4753 -4435 0
-4753 4752 0
4753 4435 -4752 0
-4754 -4437 0
-4754 4753 0
4754 4437 -4753 0
-4755 -4443 0
-4755 4754 0
4755 4443 -4754 0
-4756 -4445 0
-4756 4755 0
4756 4445 -4755 0
-4757 -4451 0
-4757 4756 0
4757 4451 -4756 0
-4758 -4453 0
-4758 4757 0
4758 4453 -4757 0
-4759 -4459 0
-4759 4758 0
4759 4459 -4758 0
-4760 -4461 0
-4760 4759 0
4760 4461 -4759 0
-4761 -4467 0
-4761 4760 0
4761 4467 -4760 0
-4762 -4469 0
-4762 4761 0
4762 4469 -4761 0
-4763 -4475 0
-4763 4762 0
4763 4475 -4762 0
-4764 -4477 0
-4764 4763 0
4764 4477 -4763 0
-4765 -4483 0
-4765 4764 0
4765 4483 -4764 0
-4766 -4485 0
-4766 4765 0
4766 4485 -4765 0
-4767 -4491 0
-4767 4766 0
4767 4491 -4766 0
-4768 -4493 0
-4768 4767 0
4768 4493 -4767 0
-4769 -4499 0
-4769 4768 0
4769 4499 -4768 0
-4770 -4501 0
-4770 4769 0
4770 4501 -4769 0
-4771 -4507 0
-4771 4770 0
4771 4507 -4770 0
-4772 -4509 0
-4772 4771 0
4772 4509 -4771 0
-4773 -4515 0
-4773 4772 0
4773 4515 -4772 0
-4774 -4517 0
-4774 4773 0
4774 4517 -4773 0
-4775 -4523 0
-4775 4774 0
4775 4523 -4774 0
-4776 -4525 0
-4776 4775 0
4776 4525 -4775 0
-4777 -4531 0
-4777 4776 0
4777 4531 -4776 0
-4778 -4533 0
-4778 4777 0
4778 4533 -4777 0
-4779 -4539 0
-4779 4778 0
4779 4539 -4778 0
-4780 -4541 0
-4780 4779 0
4780 4541 -4779 0
-4781 -4547 0
-4781 4780 0
4781 4547 -4780 0
-4782 -4549 0
-4782 4781 0
4782 4549 -4781 0
-4783 -4555 0
-4783 4782 0
4783 4555 -4782 0
-4784 -4557 0
-4784 4783 0
4784 4557 -4783 0
-4785 -4563 0
-4785 4784 0
4785 4563 -4784 0
-4786 -4565 0
-4786 4785 0
4786 4565 -4785 0
-4787 -4571 0
-4787 4786 0
4787 4571 -4786 0
-4788 -4573 0
-4788 4787 0
4788 4573 -4787 0
-4789 4637 0
-4789 -4734 0
4789 -4637 4734 0
-4790 4638 0
-4790 -4731 0
4790 -4638 4731 0
-4791 4639 0
-4791 -4728 0
4791 -4639 4728 0
-4792 4640 0
-4792 -4725 0
4792 -4640 4725 0
-4793 4641 0
-4793 -4722 0
4793 -4641 4722 0
-4794 4642 0
-4794 -4719 0
4794 -4642 4719 0
-4795 4643 0
-4795 -4716 0
4795 -4643 4716 0
-4796 4644 0
-4796 -4713 0
4796 -4644 4713 0
-4797 4645 0
-4797 -4710 0
4797 -4645 4710 0
-4798 4646 0
-4798 -4707 0
4798 -4646 4707 0
-4799 4647 0
-4799 -4704 0
4799 -4647 4704 0
-4800 4648 0
-4800 -4701 0
4800 -4648 4701 0
-4801 4649 0
-4801 -4698 0
4801 -4649 4698 0
-4802 4650 0
-4802 -4695 0
4802 -4650 4695 0
-4803 4651 0
-4803 -4692 0
4803 -4651 4692 0
-4804 4652 0
-4804 -4689 0
4804 -4652 4689 0
-4805 4653 0
-4805 -4686 0
4805 -4653 4686 0
-4806 4654 0
-4806 -4683 0
4806 -4654 4683 0
-4807 4655 0
-4807 -4680 0
4807 -4655 4680 0
-4808 4656 0
-4808 -4677 0
4808 -4656 4677 0
-4809 4657 0
-4809 -4674 0
4809 -4657 4674 0
-4810 4658 0
-4810 -4671 0
4810 -4658 4671 0
-4811 4659 0
-4811 -4668 0
4811 -4659 4668 0
-4812 4660 0
-4812 -4665 0
4812 -4660 4665 0
-4813 4661 0
-4813 4662 0
4813 -4661 -4662 0
-4814 4812 0
-4814 -4813 0
4814 -4812 4813 0
-4815 -4812 0
-4815 4813 0
4815 4812 -4813 0
-4816 -4814 0
-4816 -4815 0
4816 4814 4815 0
-4817 4811 0
-4817 4816 0
4817 -4811 -4816 0
-4818 -4811 0
-4818 -4816 0
4818 4811 4816 0
-4819 -4817 0
-4819 -4818 0
4819 4817 4818 0
-4820 4810 0
-4820 4819 0
4820 -4810 -4819 0
-4821 -4810 0
-4821 -4819 0
4821 4810 4819 0
-4822 -4820 0
-4822 -4821 0
4822 4820 4821 0
-4823 4809 0
-4823 4822 0
4823 -4809 -4822 0
-4824 -4809 0
-4824 -4822 0
4824 4809 4822 0
-4825 -4823 0
-4825 -4824 0
4825 4823 4824 0
-4826 4808 0
-4826 4825 0
4826 -4808 -4825 0
-4827 -4808 0
-4827 -4825 0
4827 4808 4825 0
-4828 -4826 0
-4828 -4827 0
4828 4826 4827 0
-4829 4807 0
-4829 4828 0
4829 -4807 -4828 0
-4830 -4807 0
-4830 -4828 0
4830 4807 4828 0
-4831 -4829 0
-4831 -4830 0
4831 4829 4830 0
-4832 4806 0
-4832 4831 0
4832 -4806 -4831 0
-4833 -4806 0
-4833 -4831 0
4833 4806 4831 0
-4834 -4832 0
-4834 -4833 0
4834 4832 4833 0
-4835 4805 0
-4835 4834 0
4835 -4805 -4834 0
-4836 -4805 0
-4836 -4834 0
4836 4805 4834 0
-4837 -4835 0
-4837 -4836 0
4837 4835 4836 0
-4838 4804 0
-4838 4837 0
4838 -4804 -4837 0
-4839 -4804 0
-4839 -4837 0
4839 4804 4837 0
-4840 -4838 0
-4840 -4839 0
4840 4838 4839 0
-4841 4803 0
-4841 4840 0
4841 -4803 -4840 0
-4842 -4803 0
-4842 -4840 0
4842 4803 4840 0
-4843 -4841 0
-4843 -4842 0
4843 4841 4842 0
-4844 4802 0
-4844 4843 0
4844 -4802 -4843 0
-4845 -4802 0
-4845 -4843 0
4845 4802 4843 0
-4846 -4844 0
-4846 -4845 0
4846 4844 4845 0
-4847 4801 0
-4847 4846 0
4847 -4801 -4846 0
-4848 -4801 0
-4848 -4846 0
4848 4801 4846 0
-4849 -4847 0
-4849 -4848 0
4849 4847 4848 0
-4850 4800 0
-4850 4849 0
4850 -4800 -4849 0
-4851 -4800 0
-4851 -4849 0
4851 4800 4849 0
-4852 -4850 0
-4852 -4851 0
4852 4850 4851 0
-4853 4799 0
-4853 4852 0
4853 -4799 -4852 0
-4854 -4799 0
-4854 -4852 0
4854 4799 4852 0
-4855 -4853 0
-4855 -4854 0
4855 4853 4854 0
-4856 4798 0
-4856 4855 0
4856 -4798 -4855 0
-4857 -4798 0
-4857 -4855 0
4857 4798 4855 0
-4858 -4856 0
-4858 -4857 0
4858 4856 4857 0
-4859 4797 0
-4859 4858 0
4859 -4797 -4858 0
-4860 -4797 0
-4860 -4858 0
4860 4797 4858 0
-4861 -4859 0
-4861 -4860 0
4861 4859 4860 0
-4862 4796 0
-4862 4861 0
4862 -4796 -4861 0
-4863 -4796 0
-4863 -4861 0
4863 4796 4861 0
-4864 -4862 0
-4864 -4863 0
4864 4862 4863 0
-4865 4795 0
-4865 4864 0
4865 -4795 -4864 0
-4866 -4795 0
-4866 -4864 0
4866 4795 4864 0
-4867 -4865 0
-4867 -4866 0
4867 4865 4866 0
-4868 4794 0
-4868 4867 0
4868 -4794 -4867 0
-4869 -4794 0
-4869 -4867 0
4869 4794 4867 0
-4870 -4868 0
-4870 -4869 0
4870 4868 4869 0
-4871 4793 0
-4871 4870 0
4871 -4793 -4870 0
-4872 -4793 0
-4872 -4870 0
4872 4793 4870 0
-4873 -4871 0
-4873 -4872 0
4873 4871 4872 0
-4874 4792 0
-4874 4873 0
4874 -4792 -4873 0
-4875 -4792 0
-4875 -4873 0
4875 4792 4873 0
-4876 -4874 0
-4876 -4875 0
4876 4874 4875 0
-4877 4791 0
-4877 4876 0
4877 -4791 -4876 0
-4878 -4791 0
-4878 -4876 0
4878 4791 4876 0
-4879 -4877 0
-4879 -4878 0
4879 4877 4878 0
-4880 4790 0
-4880 4879 0
4880 -4790 -4879 0
-4881 -4790 0
-4881 -4879 0
4881 4790 4879 0
-4882 -4880 0
-4882 -4881 0
4882 4880 4881 0
-4883 4789 0
-4883 4882 0
4883 -4789 -4882 0
-4884 -4789 0
-4884 -4882 0
4884 4789 4882 0
-4885 -4883 0
-4885 -4884 0
4885 4883 4884 0
-4886 4788 0
-4886 4885 0
4886 -4788 -4885 0
-4887 -4379 0
-4887 4886 0
4887 4379 -4886 0
-4888 -4381 0
-4888 4887 0
4888 4381 -4887 0
-4889 -4387 0
-4889 4888 0
4889 4387 -4888 0
-4890 -4389 0
-4890 4889 0
4890 4389 -4889 0
-4891 -4395 0
-4891 4890 0
4891 4395 -4890 0
-4892 -4397 0
-4892 4891 0
4892 4397 -4891 0
-4893 -4403 0
-4893 4892 0
4893 4403 -4892 0
-4894 -4405 0
-4894 4893 0
4894 4405 -4893 0
-4895 -4411 0
-4895 4894 0
4895 4411 -4894 0
-4896 -4413 0
-4896 4895 0
4896 4413 -4895 0
-4897 -4419 0
-4897 4896 0
4897 4419 -4896 0
-4898 -4421 0
-4898 4897 0
4898 4421 -4897 0
-4899 -4427 0
-4899 4898 0
4899 4427 -4898 0
-4900 -4429 0
-4900 4899 0
4900 4429 -4899 0
-4901 -4435 0
-4901 4900 0
4901 4435 -4900 0
-4902 -4437 0
-4902 4901 0
4902 4437 -4901 0
-4903 -4443 0
-4903 4902 0
4903 4443 -4902 0
-4904 -4445 0
-4904 4903 0
4904 4445 -4903 0
-4905 -4451 0
-4905 4904 0
4905 4451 -4904 0
-4906 -4453 0
-4906 4905 0
4906 4453 -4905 0
-4907 -4459 0
-4907 4906 0
4907 4459 -4906 0
-4908 -4461 0
-4908 4907 0
4908 4461 -4907 0
-4909 -4467 0
-4909 4908 0
4909 4467 -4908 0
-4910 -4469 0
-4910 4909 0
4910 4469 -4909 0
-4911 -4475 0
-4911 4910 0
4911 4475 -4910 0
-4912 -4477 0
-4912 4911 0
4912 4477 -4911 0
-4913 -4483 0
-4913 4912 0
4913 4483 -4912 0
-4914 -4485 0
-4914 4913 0
4914 4485 -4913 0
-4915 -4491 0
-4915 4914 0
4915 4491 -4914 0
-4916 -4493 0
-4916 4915 0
4916 4493 -4915 0
-4917 -4499 0
-4917 4916 0
4917 4499 -4916 0
-4918 -4501 0
-4918 4917 0
4918 4501 -4917 0
-4919 -4507 0
-4919 4918 0
4919 4507 -4918 0
-4920 -4509 0
-4920 4919 0
4920 4509 -4919 0
-4921 -4515 0
-4921 4920 0
4921 4515 -4920 0
-4922 -4517 0
-4922 4921 0
4922 4517 -4921 0
-4923 -4523 0
-4923 4922 0
4923 4523 -4922 0
-4924 -4525 0
-4924 4923 0
4924 4525 -4923 0
-4925 -4531 0
-4925 4924 0
4925 4531 -4924 0
-4926 -4533 0
-4926 4925 0
4926 4533 -4925 0
-4927 -4539 0
-4927 4926 0
4927 4539 -4926 0
-4928 -4541 0
-4928 4927 0
4928 4541 -4927 0
-4929 -4547 0
-4929 4928 0
4929 4547 -4928 0
-4930 -4549 0
-4930 4929 0
4930 4549 -4929 0
-4931 -4555 0
-4931 4930 0
4931 4555 -4930 0
-4932 -4557 0
-4932 4931 0
4932 4557 -4931 0
-4933 -4563 0
-4933 4932 0
4933 4563 -4932 0
-4934 -4565 0
-4934 4933 0
4934 4565 -4933 0
-4935 -4571 0
-4935 4934 0
4935 4571 -4934 0
-4936 -4573 0
-4936 4935 0
4936 4573 -4935 0
-4937 4789 0
-4937 -4882 0
4937 -4789 4882 0
-4938 4790 0
-4938 -4879 0
4938 -4790 4879 0
-4939 4791 0
-4939 -4876 0
4939 -4791 4876 0
-4940 4792 0
-4940 -4873 0
4940 -4792 4873 0
-4941 4793 0
-4941 -4870 0
4941 -4793 4870 0
-4942 4794 0
-4942 -4867 0
4942 -4794 4867 0
-4943 4795 0
-4943 -4864 0
4943 -4795 4864 0
-4944 4796 0
-4944 -4861 0
4944 -4796 4861 0
-4945 4797 0
-4945 -4858 0
4945 -4797 4858 0
-4946 4798 0
-4946 -4855 0
4946 -4798 4855 0
-4947 4799 0
-4947 -4852 0
4947 -4799 4852 0
-4948 4800 0
-4948 -4849 0
4948 -4800 4849 0
-4949 4801 0
-4949 -4846 0
4949 -4801 4846 0
-4950 4802 0
-4950 -4843 0
4950 -4802 4843 0
-4951 4803 0
-4951 -4840 0
4951 -4803 4840 0
-4952 4804 0
-4952 -4837 0
4952 -4804 4837 0
-4953 4805 0
-4953 -4834 0
4953 -4805 4834 0
-4954 4806 0
-4954 -4831 0
4954 -4806 4831 0
-4955 4807 0
-4955 -4828 0
4955 -4807 4828 0
-4956 4808 0
-4956 -4825 0
4956 -4808 4825 0
-4957 4809 0
-4957 -4822 0
4957 -4809 4822 0
-4958 4810 0
-4958 -4819 0
4958 -4810 4819 0
-4959 4811 0
-4959 -4816 0
4959 -4811 4816 0
-4960 4812 0
-4960 4813 0
4960 -4812 -4813 0
-4961 4959 0
-4961 -4960 0
4961 -4959 4960 0
-4962 -4959 0
-4962 4960 0
4962 4959 -4960 0
-4963 -4961 0
-4963 -4962 0
4963 4961 4962 0
-4964 4958 0
-4964 4963 0
4964 -4958 -4963 0
-4965 -4958 0
-4965 -4963 0
4965 4958 4963 0
-4966 -4964 0
-4966 -4965 0
4966 4964 4965 0
-4967 4957 0
-4967 4966 0
4967 -4957 -4966 0
-4968 -4957 0
-4968 -4966 0
4968 4957 4966 0
-4969 -4967 0
-4969 -4968 0
4969 4967 4968 0
-4970 4956 0
-4970 4969 0
4970 -4956 -4969 0
-4971 -4956 0
-4971 -4969 0
4971 4956 4969 0
-4972 -4970 0
-4972 -4971 0
4972 4970 4971 0
-4973 4955 0
-4973 4972 0
4973 -4955 -4972 0
-4974 -4955 0
-4974 -4972 0
4974 4955 4972 0
-4975 -4973 0
-4975 -4974 0
4975 4973 4974 0
-4976 4954 0
-4976 4975 0
4976 -4954 -4975 0
-4977 -4954 0
-4977 -4975 0
4977 4954 4975 0
-4978 -4976 0
-4978 -4977 0
4978 4976 4977 0
-4979 4953 0
-4979 4978 0
4979 -4953 -4978 0
-4980 -4953 0
-4980 -4978 0
4980 4953 4978 0
-4981 -4979 0
-4981 -4980 0
4981 4979 4980 0
-4982 4952 0
-4982 4981 0
4982 -4952 -4981 0
-4983 -4952 0
-4983 -4981 0
4983 4952 4981 0
-4984 -4982 0
-4984 -4983 0
4984 4982 4983 0
-4985 4951 0
-4985 4984 0
4985 -4951 -4984 0
-4986 -4951 0
-4986 -4984 0
4986 4951 4984 0
-4987 -4985 0
-4987 -4986 0
4987 4985 4986 0
-4988 4950 0
-4988 4987 0
4988 -4950 -4987 0
-4989 -4950 0
-4989 -4987 0
4989 4950 4987 0
-4990 -4988 0
-4990 -4989 0
4990 4988 4989 0
-4991 4949 0
-4991 4990 0
4991 -4949 -4990 0
-4992 -4949 0
-4992 -4990 0
4992 4949 4990 0
-4993 -4991 0
-4993 -4992 0
4993 4991 4992 0
-4994 4948 0
-4994 4993 0
4994 -4948 -4993 0
-4995 -4948 0
-4995 -4993 0
4995 4948 4993 0
-4996 -4994 0
-4996 -4995 0
4996 4994 4995 0
-4997 4947 0
-4997 4996 0
4997 -4947 -4996 0
-4998 -4947 0
-4998 -4996 0
4998 4947 4996 0
-4999 -4997 0
-4999 -4998 0
4999 4997 4998 0
-5000 4946 0
-5000 4999 0
5000 -4946 -4999 0
-5001 -4946 0
-5001 -4999 0
5001 4946 4999 0
-5002 -5000 0
-5002 -5001 0
5002 5000 5001 0
-5003 4945 0
-5003 5002 0
5003 -4945 -5002 0
-5004 -4945 0
-5004 -5002 0
5004 4945 5002 0
-5005 -5003 0
-5005 -5004 0
5005 5003 5004 0
-5006 4944 0
-5006 5005 0
5006 -4944 -5005 0
-5007 -4944 0
-5007 -5005 0
5007 4944 5005 0
-5008 -5006 0
-5008 -5007 0
5008 5006 5007 0
-5009 4943 0
-5009 5008 0
5009 -4943 -5008 0
-5010 -4943 0
-5010 -5008 0
5010 4943 5008 0
-5011 -5009 0
-5011 -5010 0
5011 5009 5010 0
-5012 4942 0
-5012 5011 0
5012 -4942 -5011 0
-5013 -4942 0
-5013 -5011 0
5013 4942 5011 0
-5014 -5012 0
-5014 -5013 0
5014 5012 5013 0
-5015 4941 0
-5015 5014 0
5015 -4941 -5014 0
-5016 -4941 0
-5016 -5014 0
5016 4941 5014 0
-5017 -5015 0
-5017 -5016 0
5017 5015 5016 0
-5018 4940 0
-5018 5017 0
5018 -4940 -5017 0
-5019 -4940 0
-5019 -5017 0
5019 4940 5017 0
-5020 -5018 0
-5020 -5019 0
5020 5018 5019 0
-5021 4939 0
-5021 5020 0
5021 -4939 -5020 0
-5022 -4939 0
-5022 -5020 0
5022 4939 5020 0
-5023 -5021 0
-5023 -5022 0
5023 5021 5022 0
-5024 4938 0
-5024 5023 0
5024 -4938 -5023 0
-5025 -4938 0
-5025 -5023 0
5025 4938 5023 0
-5026 -5024 0
-5026 -5025 0
5026 5024 5025 0
-5027 4937 0
-5027 5026 0
5027 -4937 -5026 0
-5028 -4937 0
-5028 -5026 0
5028 4937 5026 0
-5029 -5027 0
-5029 -5028 0
5029 5027 5028 0
-5030 4936 0
-5030 5029 0
5030 -4936 -5029 0
-5031 -4379 0
-5031 5030 0
5031 4379 -5030 0
-5032 -4381 0
-5032 5031 0
5032 4381 -5031 0
-5033 -4387 0
-5033 5032 0
5033 4387 -5032 0
-5034 -4389 0
-5034 5033 0
5034 4389 -5033 0
-5035 -4395 0
-5035 5034 0
5035 4395 -5034 0
-5036 -4397 0
-5036 5035 0
5036 4397 -5035 0
-5037 -4403 0
-5037 5036 0
5037 4403 -5036 0
-5038 -4405 0
-5038 5037 0
5038 4405 -5037 0
-5039 -4411 0
-5039 5038 0
5039 4411 -5038 0
-5040 -4413 0
-5040 5039 0
5040 4413 -5039 0
-5041 -4419 0
-5041 5040 0
5041 4419 -5040 0
-5042 -4421 0
-5042 5041 0
5042 4421 -5041 0
-5043 -4427 0
-5043 5042 0
5043 4427 -5042 0
-5044 -4429 0
-5044 5043 0
5044 4429 -5043 0
-5045 -4435 0
-5045 5044 0
5045 4435 -5044 0
-5046 -4437 0
-5046 5045 0
5046 4437 -5045 0
-5047 -4443 0
-5047 5046 0
5047 4443 -5046 0
-5048 -4445 0
-5048 5047 0
5048 4445 -5047 0
-5049 -4451 0
-5049 5048 0
5049 4451 -5048 0
-5050 -4453 0
-5050 5049 0
5050 4453 -5049 0
-5051 -4459 0
-5051 5050 0
5051 4459 -5050 0
-5052 -4461 0
-5052 5051 0
5052 4461 -5051 0
-5053 -4467 0
-5053 5052 0
5053 4467 -5052 0
-5054 -4469 0
-5054 5053 0
5054 4469 -5053 0
-5055 -4475 0
-5055 5054 0
5055 4475 -5054 0
-5056 -4477 0
-5056 5055 0
5056 4477 -5055 0
-5057 -4483 0
-5057 5056 0
5057 4483 -5056 0
-5058 -4485 0
-5058 5057 0
5058 4485 -5057 0
-5059 -4491 0
-5059 5058 0
5059 4491 -5058 0
-5060 -4493 0
-5060 5059 0
5060 4493 -5059 0
-5061 -4499 0
-5061 5060 0
5061 4499 -5060 0
-5062 -4501 0
-5062 5061 0
5062 4501 -5061 0
-5063 -4507 0
-5063 5062 0
5063 4507 -5062 0
-5064 -4509 0
-5064 5063 0
5064 4509 -5063 0
-5065 -4515 0
-5065 5064 0
5065 4515 -5064 0
-5066 -4517 0
-5066 5065 0
5066 4517 -5065 0
-5067 -4523 0
-5067 5066 0
5067 4523 -5066 0
-5068 -4525 0
-5068 5067 0
5068 4525 -5067 0
-5069 -4531 0
-5069 5068 0
5069 4531 -5068 0
-5070 -4533 0
-5070 5069 0
5070 4533 -5069 0
-5071 -4539 0
-5071 5070 0
5071 4539 -5070 0
-5072 -4541 0
-5072 5071 0
5072 4541 -5071 0
-5073 -4547 0
-5073 5072 0
5073 4547 -5072 0
-5074 -4549 0
-5074 5073 0
5074 4549 -5073 0
-5075 -4555 0
-5075 5074 0
5075 4555 -5074 0
-5076 -4557 0
-5076 5075 0
5076 4557 -5075 0
-5077 -4563 0
-5077 5076 0
5077 4563 -5076 0
-5078 -4565 0
-5078 5077 0
5078 4565 -5077 0
-5079 -4571 0
-5079 5078 0
5079 4571 -5078 0
-5080 -4573 0
-5080 5079 0
5080 4573 -5079 0
-5081 4937 0
-5081 -5026 0
5081 -4937 5026 0
-5082 4938 0
-5082 -5023 0
5082 -4938 5023 0
-5083 4939 0
-5083 -5020 0
5083 -4939 5020 0
-5084 4940 0
-5084 -5017 0
5084 -4940 5017 0
-5085 4941 0
-5085 -5014 0
5085 -4941 5014 0
-5086 4942 0
-5086 -5011 0
5086 -4942 5011 0
-5087 4943 0
-5087 -5008 0
5087 -4943 5008 0
-5088 4944 0
-5088 -5005 0
5088 -4944 5005 0
-5089 4945 0
-5089 -5002 0
5089 -4945 5002 0
-5090 4946 0
-5090 -4999 0
5090 -4946 4999 0
-5091 4947 0
-5091 -4996 0
5091 -4947 4996 0
-5092 4948 0
-5092 -4993 0
5092 -4948 4993 0
-5093 4949 0
-5093 -4990 0
5093 -4949 4990 0
-5094 4950 0
-5094 -4987 0
5094 -4950 4987 0
-5095 4951 0
-5095 -4984 0
5095 -4951 4984 0
-5096 4952 0
-5096 -4981 0
5096 -4952 4981 0
-5097 4953 0
-5097 -4978 0
5097 -4953 4978 0
-5098 4954 0
-5098 -4975 0
5098 -4954 4975 0
-5099 4955 0
-5099 -4972 0
5099 -4955 4972 0
-5100 4956 0
-5100 -4969 0
5100 -4956 4969 0
-5101 4957 0
-5101 -4966 0
5101 -4957 4966 0
-5102 4958 0
-5102 -4963 0
5102 -4958 4963 0
-5103 4959 0
-5103 4960 0
5103 -4959 -4960 0
-5104 5102 0
-5104 -5103 0
5104 -5102 5103 0
-5105 -5102 0
-5105 5103 0
5105 5102 -5103 0
-5106 -5104 0
-5106 -5105 0
5106 5104 5105 0
-5107 5101 0
-5107 5106 0
5107 -5101 -5106 0
-5108 -5101 0
-5108 -5106 0
5108 5101 5106 0
-5109 -5107 0
-5109 -5108 0
5109 5107 5108 0
-5110 5100 0
-5110 5109 0
5110 -5100 -5109 0
-5111 -5100 0
-5111 -5109 0
5111 5100 5109 0
-5112 -5110 0
-5112 -5111 0
5112 5110 5111 0
-5113 5099 0
-5113 5112 0
5113 -5099 -5112 0
-5114 -5099 0
-5114 -5112 0
5114 5099 5112 0
-5115 -5113 0
-5115 -5114 0
5115 5113 5114 0
-5116 5098 0
-5116 5115 0
5116 -5098 -5115 0
-5117 -5098 0
-5117 -5115 0
5117 5098 5115 0
-5118 -5116 0
-5118 -5117 0
5118 5116 5117 0
-5119 5097 0
-5119 5118 0
5119 -5097 -5118 0
-5120 -5097 0
-5120 -5118 0
5120 5097 5118 0
-5121 -5119 0
-5121 -5120 0
5121 5119 5120 0
-5122 5096 0
-5122 5121 0
5122 -5096 -5121 0
-5123 -5096 0
-5123 -5121 0
5123 5096 5121 0
-5124 -5122 0
-5124 -5123 0
5124 5122 5123 0
-5125 5095 0
-5125 5124 0
5125 -5095 -5124 0
-5126 -5095 0
-5126 -5124 0
5126 5095 5124 0
-5127 -5125 0
-5127 -5126 0
5127 5125 5126 0
-5128 5094 0
-5128 5127 0
5128 -5094 -5127 0
-5129 -5094 0
-5129 -5127 0
5129 5094 5127 0
-5130 -5128 0
-5130 -5129 0
5130 5128 5129 0
-5131 5093 0
-5131 5130 0
5131 -5093 -5130 0
-5132 -5093 0
-5132 -5130 0
5132 5093 5130 0
-5133 -5131 0
-5133 -5132 0
5133 5131 5132 0
-5134 5092 0
-5134 5133 0
5134 -5092 -5133 0
-5135 -5092 0
-5135 -5133 0
5135 5092 5133 0
-5136 -5134 0
-5136 -5135 0
5136 5134 5135 0
-5137 5091 0
-5137 5136 0
5137 -5091 -5136 0
-5138 -5091 0
-5138 -5136 0
5138 5091 5136 0
-5139 -5137 0
-5139 -5138 0
5139 5137 5138 0
-5140 5090 0
-5140 5139 0
5140 -5090 -5139 0
-5141 -5090 0
-5141 -5139 0
5141 5090 5139 0
-5142 -5140 0
-5142 -5141 0
5142 5140 5141 0
-5143 5089 0
-5143 5142 0
5143 -5089 -5142 0
-5144 -5089 0
-5144 -5142 0
5144 5089 5142 0
-5145 -5143 0
-5145 -5144 0
5145 5143 5144 0
-5146 5088 0
-5146 5145 0
5146 -5088 -5145 0
-5147 -5088 0
-5147 -5145 0
5147 5088 5145 0
-5148 -5146 0
-5148 -5147 0
5148 5146 5147 0
-5149 5087 0
-5149 5148 0
5149 -5087 -5148 0
-5150 -5087 0
-5150 -5148 0
5150 5087 5148 0
-5151 -5149 0
-5151 -5150 0
5151 5149 5150 0
-5152 5086 0
-5152 5151 0
5152 -5086 -5151 0
-5153 -5086 0
-5153 -5151 0
5153 5086 5151 0
-5154 -5152 0
-5154 -5153 0
5154 5152 5153 0
-5155 5085 0
-5155 5154 0
5155 -5085 -5154 0
-5156 -5085 0
-5156 -5154 0
5156 5085 5154 0
-5157 -5155 0
-5157 -5156 0
5157 5155 5156 0
-5158 5084 0
-5158 5157 0
5158 -5084 -5157 0
-5159 -5084 0
-5159 -5157 0
5159 5084 5157 0
-5160 -5158 0
-5160 -5159 0
5160 5158 5159 0
-5161 5083 0
-5161 5160 0
5161 -5083 -5160 0
-5162 -5083 0
-5162 -5160 0
5162 5083 5160 0
-5163 -5161 0
-5163 -5162 0
5163 5161 5162 0
-5164 5082 0
-5164 5163 0
5164 -5082 -5163 0
-5165 -5082 0
-5165 -5163 0
5165 5082 5163 0
-5166 -5164 0
-5166 -5165 0
5166 5164 5165 0
-5167 5081 0
-5167 5166 0
5167 -5081 -5166 0
-5168 -5081 0
-5168 -5166 0
5168 5081 5166 0
-5169 -5167 0
-5169 -5168 0
5169 5167 5168 0
-5170 5080 0
-5170 -5169 0
5170 -5080 5169 0
-5171 -4379 0
-5171 5170 0
5171 4379 -5170 0
-5172 -4381 0
-5172 5171 0
5172 4381 -5171 0
-5173 -4387 0
-5173 5172 0
5173 4387 -5172 0
-5174 -4389 0
-5174 5173 0
5174 4389 -5173 0
-5175 -4395 0
-5175 5174 0
5175 4395 -5174 0
-5176 -4397 0
-5176 5175 0
5176 4397 -5175 0
-5177 -4403 0
-5177 5176 0
5177 4403 -5176 0
-5178 -4405 0
-5178 5177 0
5178 4405 -5177 0
-5179 -4411 0
-5179 5178 0
5179 4411 -5178 0
-5180 -4413 0
-5180 5179 0
5180 4413 -5179 0
-5181 -4419 0
-5181 5180 0
5181 4419 -5180 0
-5182 -4421 0
-5182 5181 0
5182 4421 -5181 0
-5183 -4427 0
-5183 5182 0
5183 4427 -5182 0
-5184 -4429 0
-5184 5183 0
5184 4429 -5183 0
-5185 -4435 0
-5185 5184 0
5185 4435 -5184 0
-5186 -4437 0
-5186 5185 0
5186 4437 -5185 0
-5187 -4443 0
-5187 5186 0
5187 4443 -5186 0
-5188 -4445 0
-5188 5187 0
5188 4445 -5187 0
-5189 -4451 0
-5189 5188 0
5189 4451 -5188 0
-5190 -4453 0
-5190 5189 0
5190 4453 -5189 0
-5191 -4459 0
-5191 5190 0
5191 4459 -5190 0
-5192 -4461 0
-5192 5191 0
5192 4461 -5191 0
-5193 -4467 0
-5193 5192 0
5193 4467 -5192 0
-5194 -4469 0
-5194 5193 0
5194 4469 -5193 0
-5195 -4475 0
-5195 5194 0
5195 4475 -5194 0
-5196 -4477 0
-5196 5195 0
5196 4477 -5195 0
-5197 -4483 0
-5197 5196 0
5197 4483 -5196 0
-5198 -4485 0
-5198 5197 0
5198 4485 -5197 0
-5199 -4491 0
-5199 5198 0
5199 4491 -5198 0
-5200 -4493 0
-5200 5199 0
5200 4493 -5199 0
-5201 -4499 0
-5201 5200 0
5201 4499 -5200 0
-5202 -4501 0
-5202 5201 0
5202 4501 -5201 0
-5203 -4507 0
-5203 5202 0
5203 4507 -5202 0
-5204 -4509 0
-5204 5203 0
5204 4509 -5203 0
-5205 -4515 0
-5205 5204 0
5205 4515 -5204 0
-5206 -4517 0
-5206 5205 0
5206 4517 -5205 0
-5207 -4523 0
-5207 5206 0
5207 4523 -5206 0
-5208 -4525 0
-5208 5207 0
5208 4525 -5207 0
-5209 -4531 0
-5209 5208 0
5209 4531 -5208 0
-5210 -4533 0
-5210 5209 0
5210 4533 -5209 0
-5211 -4539 0
-5211 5210 0
5211 4539 -5210 0
-5212 -4541 0
-5212 5211 0
5212 4541 -5211 0
-5213 -4547 0
-5213 5212 0
5213 4547 -5212 0
-5214 -4549 0
-5214 5213 0
5214 4549 -5213 0
-5215 -4555 0
-5215 5214 0
5215 4555 -5214 0
-5216 -4557 0
-5216 5215 0
5216 4557 -5215 0
-5217 -4563 0
-5217 5216 0
5217 4563 -5216 0
-5218 -4565 0
-5218 5217 0
5218 4565 -5217 0
-5219 -4571 0
-5219 5218 0
5219 4571 -5218 0
-5220 -4573 0
-5220 5219 0
5220 4573 -5219 0
-5221 5081 0
-5221 -5166 0
5221 -5081 5166 0
-5222 5082 0
-5222 -5163 0
5222 -5082 5163 0
-5223 5083 0
-5223 -5160 0
5223 -5083 5160 0
-5224 5084 0
-5224 -5157 0
5224 -5084 5157 0
-5225 5085 0
-5225 -5154 0
5225 -5085 5154 0
-5226 5086 0
-5226 -5151 0
5226 -5086 5151 0
-5227 5087 0
-5227 -5148 0
5227 -5087 5148 0
-5228 5088 0
-5228 -5145 0
5228 -5088 5145 0
-5229 5089 0
-5229 -5142 0
5229 -5089 5142 0
-5230 5090 0
-5230 -5139 0
5230 -5090 5139 0
-5231 5091 0
-5231 -5136 0
5231 -5091 5136 0
-5232 5092 0
-5232 -5133 0
5232 -5092 5133 0
-5233 5093 0
-5233 -5130 0
5233 -5093 5130 0
-5234 5094 0
-5234 -5127 0
5234 -5094 5127 0
-5235 5095 0
-5235 -5124 0
5235 -5095 5124 0
-5236 5096 0
-5236 -5121 0
5236 -5096 5121 0
-5237 5097 0
-5237 -5118 0
5237 -5097 5118 0
-5238 5098 0
-5238 -5115 0
5238 -5098 5115 0
-5239 5099 0
-5239 -5112 0
5239 -5099 5112 0
-5240 5100 0
-5240 -5109 0
5240 -5100 5109 0
-5241 5101 0
-5241 -5106 0
5241 -5101 5106 0
-5242 5102 0
-5242 5103 0
5242 -5102 -5103 0
-5243 5241 0
-5243 -5242 0
5243 -5241 5242 0
-5244 -5241 0
-5244 5242 0
5244 5241 -5242 0
-5245 -5243 0
-5245 -5244 0
5245 5243 5244 0
-5246 5240 0
-5246 5245 0
5246 -5240 -5245 0
-5247 -5240 0
-5247 -5245 0
5247 5240 5245 0
-5248 -5246 0
-5248 -5247 0
5248 5246 5247 0
-5249 5239 0
-5249 5248 0
5249 -5239 -5248 0
-5250 -5239 0
-5250 -5248 0
5250 5239 5248 0
-5251 -5249 0
-5251 -5250 0
5251 5249 5250 0
-5252 5238 0
-5252 5251 0
5252 -5238 -5251 0
-5253 -5238 0
-5253 -5251 0
5253 5238 5251 0
-5254 -5252 0
-5254 -5253 0
5254 5252 5253 0
-5255 5237 0
-5255 5254 0
5255 -5237 -5254 0
-5256 -5237 0
-5256 -5254 0
5256 5237 5254 0
-5257 -5255 0
-5257 -5256 0
5257 5255 5256 0
-5258 5236 0
-5258 5257 0
5258 -5236 -5257 0
-5259 -5236 0
-5259 -5257 0
5259 5236 5257 0
-5260 -5258 0
-5260 -5259 0
5260 5258 5259 0
-5261 5235 0
-5261 5260 0
5261 -5235 -5260 0
-5262 -5235 0
-5262 -5260 0
5262 5235 5260 0
-5263 -5261 0
-5263 -5262 0
5263 5261 5262 0
-5264 5234 0
-5264 5263 0
5264 -5234 -5263 0
-5265 -5234 0
-5265 -5263 0
5265 5234 5263 0
-5266 -5264 0
-5266 -5265 0
5266 5264 5265 0
-5267 5233 0
-5267 5266 0
5267 -5233 -5266 0
-5268 -5233 0
-5268 -5266 0
5268 5233 5266 0
-5269 -5267 0
-5269 -5268 0
5269 5267 5268 0
-5270 5232 0
-5270 5269 0
5270 -5232 -5269 0
-5271 -5232 0
-5271 -5269 0
5271 5232 5269 0
-5272 -5270 0
-5272 -5271 0
5272 5270 5271 0
-5273 5231 0
-5273 5272 0
5273 -5231 -5272 0
-5274 -5231 0
-5274 -5272 0
5274 5231 5272 0
-5275 -5273 0
-5275 -5274 0
5275 5273 5274 0
-5276 5230 0
-5276 5275 0
5276 -5230 -5275 0
-5277 -5230 0
-5277 -5275 0
5277 5230 5275 0
-5278 -5276 0
-5278 -5277 0
5278 5276 5277 0
-5279 5229 0
-5279 5278 0
5279 -5229 -5278 0
-5280 -5229 0
-5280 -5278 0
5280 5229 5278 0
-5281 -5279 0
-5281 -5280 0
5281 5279 5280 0
-5282 5228 0
-5282 5281 0
5282 -5228 -5281 0
-5283 -5228 0
-5283 -5281 0
5283 5228 5281 0
-5284 -5282 0
-5284 -5283 0
5284 5282 5283 0
-5285 5227 0
-5285 5284 0
5285 -5227 -5284 0
-5286 -5227 0
-5286 -5284 0
5286 5227 5284 0
-5287 -5285 0
-5287 -5286 0
5287 5285 5286 0
-5288 5226 0
-5288 5287 0
5288 -5226 -5287 0
-5289 -5226 0
-5289 -5287 0
5289 5226 5287 0
-5290 -5288 0
-5290 -5289 0
5290 5288 5289 0
-5291 5225 0
-5291 5290 0
5291 -5225 -5290 0
-5292 -5225 0
-5292 -5290 0
5292 5225 5290 0
-5293 -5291 0
-5293 -5292 0
5293 5291 5292 0
-5294 5224 0
-5294 5293 0
5294 -5224 -5293 0
-5295 -5224 0
-5295 -5293 0
5295 5224 5293 0
-5296 -5294 0
-5296 -5295 0
5296 5294 5295 0
-5297 5223 0
-5297 5296 0
5297 -5223 -5296 0
-5298 -5223 0
-5298 -5296 0
5298 5223 5296 0
-5299 -5297 0
-5299 -5298 0
5299 5297 5298 0
-5300 5222 0
-5300 5299 0
5300 -5222 -5299 0
-5301 -5222 0
-5301 -5299 0
5301 5222 5299 0
-5302 -5300 0
-5302 -5301 0
5302 5300 5301 0
-5303 5221 0
-5303 5302 0
5303 -5221 -5302 0
-5304 -5221 0
-5304 -5302 0
5304 5221 5302 0
-5305 -5303 0
-5305 -5304 0
5305 5303 5304 0
-5306 5220 0
-5306 5305 0
5306 -5220 -5305 0
-5307 -4379 0
-5307 5306 0
5307 4379 -5306 0
-5308 -4381 0
-5308 5307 0
5308 4381 -5307 0
-5309 -4387 0
-5309 5308 0
5309 4387 -5308 0
-5310 -4389 0
-5310 5309 0
5310 4389 -5309 0
-5311 -4395 0
-5311 5310 0
5311 4395 -5310 0
-5312 -4397 0
-5312 5311 0
5312 4397 -5311 0
-5313 -4403 0
-5313 5312 0
5313 4403 -5312 0
-5314 -4405 0
-5314 5313 0
5314 4405 -5313 0
-5315 -4411 0
-5315 5314 0
5315 4411 -5314 0
-5316 -4413 0
-5316 5315 0
5316 4413 -5315 0
-5317 -4419 0
-5317 5316 0
5317 4419 -5316 0
-5318 -4421 0
-5318 5317 0
5318 4421 -5317 0
-5319 -4427 0
-5319 5318 0
5319 4427 -5318 0
-5320 -4429 0
-5320 5319 0
5320 4429 -5319 0
-5321 -4435 0
-5321 5320 0
5321 4435 -5320 0
-5322 -4437 0
-5322 5321 0
5322 4437 -5321 0
-5323 -4443 0
-5323 5322 0
5323 4443 -5322 0
-5324 -4445 0
-5324 5323 0
5324 4445 -5323 0
-5325 -4451 0
-5325 5324 0
5325 4451 -5324 0
-5326 -4453 0
-5326 5325 0
5326 4453 -5325 0
-5327 -4459 0
-5327 5326 0
5327 4459 -5326 0
-5328 -4461 0
-5328 5327 0
5328 4461 -5327 0
-5329 -4467 0
-5329 5328 0
5329 4467 -5328 0
-5330 -4469 0
-5330 5329 0
5330 4469 -5329 0
-5331 -4475 0
-5331 5330 0
5331 4475 -5330 0
-5332 -4477 0
-5332 5331 0
5332 4477 -5331 0
-5333 -4483 0
-5333 5332 0
5333 4483 -5332 0
-5334 -4485 0
-5334 5333 0
5334 4485 -5333 0
-5335 -4491 0
-5335 5334 0
5335 4491 -5334 0
-5336 -4493 0
-5336 5335 0
5336 4493 -5335 0
-5337 -4499 0
-5337 5336 0
5337 4499 -5336 0
-5338 -4501 0
-5338 5337 0
5338 4501 -5337 0
-5339 -4507 0
-5339 5338 0
5339 4507 -5338 0
-5340 -4509 0
-5340 5339 0
5340 4509 -5339 0
-5341 -4515 0
-5341 5340 0
5341 4515 -5340 0
-5342 -4517 0
-5342 5341 0
5342 4517 -5341 0
-5343 -4523 0
-5343 5342 0
5343 4523 -5342 0
-5344 -4525 0
-5344 5343 0
5344 4525 -5343 0
-5345 -4531 0
-5345 5344 0
5345 4531 -5344 0
-5346 -4533 0
-5346 5345 0
5346 4533 -5345 0
-5347 -4539 0
-5347 5346 0
5347 4539 -5346 0
-5348 -4541 0
-5348 5347 0
5348 4541 -5347 0
-5349 -4547 0
-5349 5348 0
5349 4547 -5348 0
-5350 -4549 0
-5350 5349 0
5350 4549 -5349 0
-5351 -4555 0
-5351 5350 0
5351 4555 -5350 0
-5352 -4557 0
-5352 5351 0
5352 4557 -5351 0
-5353 -4563 0
-5353 5352 0
5353 4563 -5352 0
-5354 -4565 0
-5354 5353 0
5354 4565 -5353 0
-5355 -4571 0
-5355 5354 0
5355 4571 -5354 0
-5356 -4573 0
-5356 5355 0
5356 4573 -5355 0
-5357 5221 0
-5357 -5302 0
5357 -5221 5302 0
-5358 5222 0
-5358 -5299 0
5358 -5222 5299 0
-5359 5223 0
-5359 -5296 0
5359 -5223 5296 0
-5360 5224 0
-5360 -5293 0
5360 -5224 5293 0
-5361 5225 0
-5361 -5290 0
5361 -5225 5290 0
-5362 5226 0
-5362 -5287 0
5362 -5226 5287 0
-5363 5227 0
-5363 -5284 0
5363 -5227 5284 0
-5364 5228 0
-5364 -5281 0
5364 -5228 5281 0
-5365 5229 0
-5365 -5278 0
5365 -5229 5278 0
-5366 5230 0
-5366 -5275 0
5366 -5230 5275 0
-5367 5231 0
-5367 -5272 0
5367 -5231 5272 0
-5368 5232 0
-5368 -5269 0
5368 -5232 5269 0
-5369 5233 0
-5369 -5266 0
5369 -5233 5266 0
-5370 5234 0
-5370 -5263 0
5370 -5234 5263 0
-5371 5235 0
-5371 -5260 0
5371 -5235 5260 0
-5372 5236 0
-5372 -5257 0
5372 -5236 5257 0
-5373 5237 0
-5373 -5254 0
5373 -5237 5254 0
-5374 5238 0
-5374 -5251 0
5374 -5238 5251 0
-5375 5239 0
-5375 -5248 0
5375 -5239 5248 0
-5376 5240 0
-5376 -5245 0
5376 -5240 5245 0
-5377 5241 0
-5377 5242 0
5377 -5241 -5242 0
-5378 5376 0
-5378 -5377 0
5378 -5376 5377 0
-5379 -5376 0
-5379 5377 0
5379 5376 -5377 0
-5380 -5378 0
-5380 -5379 0
5380 5378 5379 0
-5381 5375 0
-5381 5380 0
5381 -5375 -5380 0
-5382 -5375 0
-5382 -5380 0
5382 5375 5380 0
-5383 -5381 0
-5383 -5382 0
5383 5381 5382 0
-5384 5374 0
-5384 5383 0
5384 -5374 -5383 0
-5385 -5374 0
-5385 -5383 0
5385 5374 5383 0
-5386 -5384 0
-5386 -5385 0
5386 5384 5385 0
-5387 5373 0
-5387 5386 0
5387 -5373 -5386 0
-5388 -5373 0
-5388 -5386 0
5388 5373 5386 0
-5389 -5387 0
-5389 -5388 0
5389 5387 5388 0
-5390 5372 0
-5390 5389 0
5390 -5372 -5389 0
-5391 -5372 0
-5391 -5389 0
5391 5372 5389 0
-5392 -5390 0
-5392 -5391 0
5392 5390 5391 0
-5393 5371 0
-5393 5392 0
5393 -5371 -5392 0
-5394 -5371 0
-5394 -5392 0
5394 5371 5392 0
-5395 -5393 0
-5395 -5394 0
5395 5393 5394 0
-5396 5370 0
-5396 5395 0
5396 -5370 -5395 0
-5397 -5370 0
-5397 -5395 0
5397 5370 5395 0
-5398 -5396 0
-5398 -5397 0
5398 5396 5397 0
-5399 5369 0
-5399 5398 0
5399 -5369 -5398 0
-5400 -5369 0
-5400 -5398 0
5400 5369 5398 0
-5401 -5399 0
-5401 -5400 0
5401 5399 5400 0
-5402 5368 0
-5402 5401 0
5402 -5368 -5401 0
-5403 -5368 0
-5403 -5401 0
5403 5368 5401 0
-5404 -5402 0
-5404 -5403 0
5404 5402 5403 0
-5405 5367 0
-5405 5404 0
5405 -5367 -5404 0
-5406 -5367 0
-5406 -5404 0
5406 5367 5404 0
-5407 -5405 0
-5407 -5406 0
5407 5405 5406 0
-5408 5366 0
-5408 5407 0
5408 -5366 -5407 0
-5409 -5366 0
-5409 -5407 0
5409 5366 5407 0
-5410 -5408 0
-5410 -5409 0
5410 5408 5409 0
-5411 5365 0
-5411 5410 0
5411 -5365 -5410 0
-5412 -5365 0
-5412 -5410 0
5412 5365 5410 0
-5413 -5411 0
-5413 -5412 0
5413 5411 5412 0
-5414 5364 0
-5414 5413 0
5414 -5364 -5413 0
-5415 -5364 0
-5415 -5413 0
5415 5364 5413 0
-5416 -5414 0
-5416 -5415 0
5416 5414 5415 0
-5417 5363 0
-5417 5416 0
5417 -5363 -5416 0
-5418 -5363 0
-5418 -5416 0
5418 5363 5416 0
-5419 -5417 0
-5419 -5418 0
5419 5417 5418 0
-5420 5362 0
-5420 5419 0
5420 -5362 -5419 0
-5421 -5362 0
-5421 -5419 0
5421 5362 5419 0
-5422 -5420 0
-5422 -5421 0
5422 5420 5421 0
-5423 5361 0
-5423 5422 0
5423 -5361 -5422 0
-5424 -5361 0
-5424 -5422 0
5424 5361 5422 0
-5425 -5423 0
-5425 -5424 0
5425 5423 5424 0
-5426 5360 0
-5426 5425 0
5426 -5360 -5425 0
-5427 -5360 0
-5427 -5425 0
5427 5360 5425 0
-5428 -5426 0
-5428 -5427 0
5428 5426 5427 0
-5429 5359 0
-5429 5428 0
5429 -5359 -5428 0
-5430 -5359 0
-5430 -5428 0
5430 5359 5428 0
-5431 -5429 0
-5431 -5430 0
5431 5429 5430 0
-5432 5358 0
-5432 5431 0
5432 -5358 -5431 0
-5433 -5358 0
-5433 -5431 0
5433 5358 5431 0
-5434 -5432 0
-5434 -5433 0
5434 5432 5433 0
-5435 5357 0
-5435 5434 0
5435 -5357 -5434 0
-5436 -5357 0
-5436 -5434 0
5436 5357 5434 0
-5437 -5435 0
-5437 -5436 0
5437 5435 5436 0
-5438 5356 0
-5438 5437 0
5438 -5356 -5437 0
-5439 -4379 0
-5439 5438 0
5439 4379 -5438 0
-5440 -4381 0
-5440 5439 0
5440 4381 -5439 0
-5441 -4387 0
-5441 5440 0
5441 4387 -5440 0
-5442 -4389 0
-5442 5441 0
5442 4389 -5441 0
-5443 -4395 0
-5443 5442 0
5443 4395 -5442 0
-5444 -4397 0
-5444 5443 0
5444 4397 -5443 0
-5445 -4403 0
-5445 5444 0
5445 4403 -5444 0
-5446 -4405 0
-5446 5445 0
5446 4405 -5445 0
-5447 -4411 0
-5447 5446 0
5447 4411 -5446 0
-5448 -4413 0
-5448 5447 0
5448 4413 -5447 0
-5449 -4419 0
-5449 5448 0
5449 4419 -5448 0
-5450 -4421 0
-5450 5449 0
5450 4421 -5449 0
-5451 -4427 0
-5451 5450 0
5451 4427 -5450 0
-5452 -4429 0
-5452 5451 0
5452 4429 -5451 0
-5453 -4435 0
-5453 5452 0
5453 4435 -5452 0
-5454 -4437 0
-5454 5453 0
5454 4437 -5453 0
-5455 -4443 0
-5455 5454 0
5455 4443 -5454 0
-5456 -4445 0
-5456 5455 0
5456 4445 -5455 0
-5457 -4451 0
-5457 5456 0
5457 4451 -5456 0
-5458 -4453 0
-5458 5457 0
5458 4453 -5457 0
-5459 -4459 0
-5459 5458 0
5459 4459 -5458 0
-5460 -4461 0
-5460 5459 0
5460 4461 -5459 0
-5461 -4467 0
-5461 5460 0
5461 4467 -5460 0
-5462 -4469 0
-5462 5461 0
5462 4469 -5461 0
-5463 -4475 0
-5463 5462 0
5463 4475 -5462 0
-5464 -4477 0
-5464 5463 0
5464 4477 -5463 0
-5465 -4483 0
-5465 5464 0
5465 4483 -5464 0
-5466 -4485 0
-5466 5465 0
5466 4485 -5465 0
-5467 -4491 0
-5467 5466 0
5467 4491 -5466 0
-5468 -4493 0
-5468 5467 0
5468 4493 -5467 0
-5469 -4499 0
-5469 5468 0
5469 4499 -5468 0
-5470 -4501 0
-5470 5469 0
5470 4501 -5469 0
-5471 -4507 0
-5471 5470 0
5471 4507 -5470 0
-5472 -4509 0
-5472 5471 0
5472 4509 -5471 0
-5473 -4515 0
-5473 5472 0
5473 4515 -5472 0
-5474 -4517 0
-5474 5473 0
5474 4517 -5473 0
-5475 -4523 0
-5475 5474 0
5475 4523 -5474 0
-5476 -4525 0
-5476 5475 0
5476 4525 -5475 0
-5477 -4531 0
-5477 5476 0
5477 4531 -5476 0
-5478 -4533 0
-5478 5477 0
5478 4533 -5477 0
-5479 -4539 0
-5479 5478 0
5479 4539 -5478 0
-5480 -4541 0
-5480 5479 0
5480 4541 -5479 0
-5481 -4547 0
-5481 5480 0
5481 4547 -5480 0
-5482 -4549 0
-5482 5481 0
5482 4549 -5481 0
-5483 -4555 0
-5483 5482 0
5483 4555 -5482 0
-5484 -4557 0
-5484 5483 0
5484 4557 -5483 0
-5485 -4563 0
-5485 5484 0
5485 4563 -5484 0
-5486 -4565 0
-5486 5485 0
5486 4565 -5485 0
-5487 -4571 0
-5487 5486 0
5487 4571 -5486 0
-5488 -4573 0
-5488 5487 0
5488 4573 -5487 0
-5489 5357 0
-5489 -5434 0
5489 -5357 5434 0
-5490 5358 0
-5490 -5431 0
5490 -5358 5431 0
-5491 5359 0
-5491 -5428 0
5491 -5359 5428 0
-5492 5360 0
-5492 -5425 0
5492 -5360 5425 0
-5493 5361 0
-5493 -5422 0
5493 -5361 5422 0
-5494 5362 0
-5494 -5419 0
5494 -5362 5419 0
-5495 5363 0
-5495 -5416 0
5495 -5363 5416 0
-5496 5364 0
-5496 -5413 0
5496 -5364 5413 0
-5497 5365 0
-5497 -5410 0
5497 -5365 5410 0
-5498 5366 0
-5498 -5407 0
5498 -5366 5407 0
-5499 5367 0
-5499 -5404 0
5499 -5367 5404 0
-5500 5368 0
-5500 -5401 0
5500 -5368 5401 0
-5501 5369 0
-5501 -5398 0
5501 -5369 5398 0
-5502 5370 0
-5502 -5395 0
5502 -5370 5395 0
-5503 5371 0
-5503 -5392 0
5503 -5371 5392 0
-5504 5372 0
-5504 -5389 0
5504 -5372 5389 0
-5505 5373 0
-5505 -5386 0
5505 -5373 5386 0
-5506 5374 0
-5506 -5383 0
5506 -5374 5383 0
-5507 5375 0
-5507 -5380 0
5507 -5375 5380 0
-5508 5376 0
-5508 5377 0
5508 -5376 -5377 0
-5509 5507 0
-5509 -5508 0
5509 -5507 5508 0
-5510 -5507 0
-5510 5508 0
5510 5507 -5508 0
-5511 -5509 0
-5511 -5510 0
5511 5509 5510 0
-5512 5506 0
-5512 5511 0
5512 -5506 -5511 0
-5513 -5506 0
-5513 -5511 0
5513 5506 5511 0
-5514 -5512 0
-5514 -5513 0
5514 5512 5513 0
-5515 5505 0
-5515 5514 0
5515 -5505 -5514 0
-5516 -5505 0
-5516 -5514 0
5516 5505 5514 0
-5517 -5515 0
-5517 -5516 0
5517 5515 5516 0
-5518 5504 0
-5518 5517 0
5518 -5504 -5517 0
-5519 -5504 0
-5519 -5517 0
5519 5504 5517 0
-5520 -5518 0
-5520 -5519 0
5520 5518 5519 0
-5521 5503 0
-5521 5520 0
5521 -5503 -5520 0
-5522 -5503 0
-5522 -5520 0
5522 5503 5520 0
-5523 -5521 0
-5523 -5522 0
5523 5521 5522 0
-5524 5502 0
-5524 5523 0
5524 -5502 -5523 0
-5525 -5502 0
-5525 -5523 0
5525 5502 5523 0
-5526 -5524 0
-5526 -5525 0
5526 5524 5525 0
-5527 5501 0
-5527 5526 0
5527 -5501 -5526 0
-5528 -5501 0
-5528 -5526 0
5528 5501 5526 0
-5529 -5527 0
-5529 -5528 0
5529 5527 5528 0
-5530 5500 0
-5530 5529 0
5530 -5500 -5529 0
-5531 -5500 0
-5531 -5529 0
5531 5500 5529 0
-5532 -5530 0
-5532 -5531 0
5532 5530 5531 0
-5533 5499 0
-5533 5532 0
5533 -5499 -5532 0
-5534 -5499 0
-5534 -5532 0
5534 5499 5532 0
-5535 -5533 0
-5535 -5534 0
5535 5533 5534 0
-5536 5498 0
-5536 5535 0
5536 -5498 -5535 0
-5537 -5498 0
-5537 -5535 0
5537 5498 5535 0
-5538 -5536 0
-5538 -5537 0
5538 5536 5537 0
-5539 5497 0
-5539 5538 0
5539 -5497 -5538 0
-5540 -5497 0
-5540 -5538 0
5540 5497 5538 0
-5541 -5539 0
-5541 -5540 0
5541 5539 5540 0
-5542 5496 0
-5542 5541 0
5542 -5496 -5541 0
-5543 -5496 0
-5543 -5541 0
5543 5496 5541 0
-5544 -5542 0
-5544 -5543 0
5544 5542 5543 0
-5545 5495 0
-5545 5544 0
5545 -5495 -5544 0
-5546 -5495 0
-5546 -5544 0
5546 5495 5544 0
-5547 -5545 0
-5547 -5546 0
5547 5545 5546 0
-5548 5494 0
-5548 5547 0
5548 -5494 -5547 0
-5549 -5494 0
-5549 -5547 0
5549 5494 5547 0
-5550 -5548 0
-5550 -5549 0
5550 5548 5549 0
-5551 5493 0
-5551 5550 0
5551 -5493 -5550 0
-5552 -5493 0
-5552 -5550 0
5552 5493 5550 0
-5553 -5551 0
-5553 -5552 0
5553 5551 5552 0
-5554 5492 0
-5554 5553 0
5554 -5492 -5553 0
-5555 -5492 0
-5555 -5553 0
5555 5492 5553 0
-5556 -5554 0
-5556 -5555 0
5556 5554 5555 0
-5557 5491 0
-5557 5556 0
5557 -5491 -5556 0
-5558 -5491 0
-5558 -5556 0
5558 5491 5556 0
-5559 -5557 0
-5559 -5558 0
5559 5557 5558 0
-5560 5490 0
-5560 5559 0
5560 -5490 -5559 0
-5561 -5490 0
-5561 -5559 0
5561 5490 5559 0
-5562 -5560 0
-5562 -5561 0
5562 5560 5561 0
-5563 5489 0
-5563 5562 0
5563 -5489 -5562 0
-5564 -5489 0
-5564 -5562 0
5564 5489 5562 0
-5565 -5563 0
-5565 -5564 0
5565 5563 5564 0
-5566 5488 0
-5566 5565 0
5566 -5488 -5565 0
-5567 -4379 0
-5567 5566 0
5567 4379 -5566 0
-5568 -4381 0
-5568 5567 0
5568 4381 -5567 0
-5569 -4387 0
-5569 5568 0
5569 4387 -5568 0
-5570 -4389 0
-5570 5569 0
5570 4389 -5569 0
-5571 -4395 0
-5571 5570 0
5571 4395 -5570 0
-5572 -4397 0
-5572 5571 0
5572 4397 -5571 0
-5573 -4403 0
-5573 5572 0
5573 4403 -5572 0
-5574 -4405 0
-5574 5573 0
5574 4405 -5573 0
-5575 -4411 0
-5575 5574 0
5575 4411 -5574 0
-5576 -4413 0
-5576 5575 0
5576 4413 -5575 0
-5577 -4419 0
-5577 5576 0
5577 4419 -5576 0
-5578 -4421 0
-5578 5577 0
5578 4421 -5577 0
-5579 -4427 0
-5579 5578 0
5579 4427 -5578 0
-5580 -4429 0
-5580 5579 0
5580 4429 -5579 0
-5581 -4435 0
-5581 5580 0
5581 4435 -5580 0
-5582 -4437 0
-5582 5581 0
5582 4437 -5581 0
-5583 -4443 0
-5583 5582 0
5583 4443 -5582 0
-5584 -4445 0
-5584 5583 0
5584 4445 -5583 0
-5585 -4451 0
-5585 5584 0
5585 4451 -5584 0
-5586 -4453 0
-5586 5585 0
5586 4453 -5585 0
-5587 -4459 0
-5587 5586 0
5587 4459 -5586 0
-5588 -4461 0
-5588 5587 0
5588 4461 -5587 0
-5589 -4467 0
-5589 5588 0
5589 4467 -5588 0
-5590 -4469 0
-5590 5589 0
5590 4469 -5589 0
-5591 -4475 0
-5591 5590 0
5591 4475 -5590 0
-5592 -4477 0
-5592 5591 0
5592 4477 -5591 0
-5593 -4483 0
-5593 5592 0
5593 4483 -5592 0
-5594 -4485 0
-5594 5593 0
5594 4485 -5593 0
-5595 -4491 0
-5595 5594 0
5595 4491 -5594 0
-5596 -4493 0
-5596 5595 0
5596 4493 -5595 0
-5597 -4499 0
-5597 5596 0
5597 4499 -5596 0
-5598 -4501 0
-5598 5597 0
5598 4501 -5597 0
-5599 -4507 0
-5599 5598 0
5599 4507 -5598 0
-5600 -4509 0
-5600 5599 0
5600 4509 -5599 0
-5601 -4515 0
-5601 5600 0
5601 4515 -5600 0
-5602 -4517 0
-5602 5601 0
5602 4517 -5601 0
-5603 -4523 0
-5603 5602 0
5603 4523 -5602 0
-5604 -4525 0
-5604 5603 0
5604 4525 -5603 0
-5605 -4531 0
-5605 5604 0
5605 4531 -5604 0
-5606 -4533 0
-5606 5605 0
5606 4533 -5605 0
-5607 -4539 0
-5607 5606 0
5607 4539 -5606 0
-5608 -4541 0
-5608 5607 0
5608 4541 -5607 0
-5609 -4547 0
-5609 5608 0
5609 4547 -5608 0
-5610 -4549 0
-5610 5609 0
5610 4549 -5609 0
-5611 -4555 0
-5611 5610 0
5611 4555 -5610 0
-5612 -4557 0
-5612 5611 0
5612 4557 -5611 0
-5613 -4563 0
-5613 5612 0
5613 4563 -5612 0
-5614 -4565 0
-5614 5613 0
5614 4565 -5613 0
-5615 -4571 0
-5615 5614 0
5615 4571 -5614 0
-5616 -4573 0
-5616 5615 0
5616 4573 -5615 0
-5617 5489 0
-5617 -5562 0
5617 -5489 5562 0
-5618 5490 0
-5618 -5559 0
5618 -5490 5559 0
-5619 5491 0
-5619 -5556 0
5619 -5491 5556 0
-5620 5492 0
-5620 -5553 0
5620 -5492 5553 0
-5621 5493 0
-5621 -5550 0
5621 -5493 5550 0
-5622 5494 0
-5622 -5547 0
5622 -5494 5547 0
-5623 5495 0
-5623 -5544 0
5623 -5495 5544 0
-5624 5496 0
-5624 -5541 0
5624 -5496 5541 0
-5625 5497 0
-5625 -5538 0
5625 -5497 5538 0
-5626 5498 0
-5626 -5535 0
5626 -5498 5535 0
-5627 5499 0
-5627 -5532 0
5627 -5499 5532 0
-5628 5500 0
-5628 -5529 0
5628 -5500 5529 0
-5629 5501 0
-5629 -5526 0
5629 -5501 5526 0
-5630 5502 0
-5630 -5523 0
5630 -5502 5523 0
-5631 5503 0
-5631 -5520 0
5631 -5503 5520 0
-5632 5504 0
-5632 -5517 0
5632 -5504 5517 0
-5633 5505 0
-5633 -5514 0
5633 -5505 5514 0
-5634 5506 0
-5634 -5511 0
5634 -5506 5511 0
-5635 5507 0
-5635 5508 0
5635 -5507 -5508 0
-5636 5634 0
-5636 -5635 0
5636 -5634 5635 0
-5637 -5634 0
-5637 5635 0
5637 5634 -5635 0
-5638 -5636 0
-5638 -5637 0
5638 5636 5637 0
-5639 5633 0
-5639 5638 0
5639 -5633 -5638 0
-5640 -5633 0
-5640 -5638 0
5640 5633 5638 0
-5641 -5639 0
-5641 -5640 0
5641 5639 5640 0
-5642 5632 0
-5642 5641 0
5642 -5632 -5641 0
-5643 -5632 0
-5643 -5641 0
5643 5632 5641 0
-5644 -5642 0
-5644 -5643 0
5644 5642 5643 0
-5645 5631 0
-5645 5644 0
5645 -5631 -5644 0
-5646 -5631 0
-5646 -5644 0
5646 5631 5644 0
-5647 -5645 0
-5647 -5646 0
5647 5645 5646 0
-5648 5630 0
-5648 5647 0
5648 -5630 -5647 0
-5649 -5630 0
-5649 -5647 0
5649 5630 5647 0
-5650 -5648 0
-5650 -5649 0
5650 5648 5649 0
-5651 5629 0
-5651 5650 0
5651 -5629 -5650 0
-5652 -5629 0
-5652 -5650 0
5652 5629 5650 0
-5653 -5651 0
-5653 -5652 0
5653 5651 5652 0
-5654 5628 0
-5654 5653 0
5654 -5628 -5653 0
-5655 -5628 0
-5655 -5653 0
5655 5628 5653 0
-5656 -5654 0
-5656 -5655 0
5656 5654 5655 0
-5657 5627 0
-5657 5656 0
5657 -5627 -5656 0
-5658 -5627 0
-5658 -5656 0
5658 5627 5656 0
-5659 -5657 0
-5659 -5658 0
5659 5657 5658 0
-5660 5626 0
-5660 5659 0
5660 -5626 -5659 0
-5661 -5626 0
-5661 -5659 0
5661 5626 5659 0
-5662 -5660 0
-5662 -5661 0
5662 5660 5661 0
-5663 5625 0
-5663 5662 0
5663 -5625 -5662 0
-5664 -5625 0
-5664 -5662 0
5664 5625 5662 0
-5665 -5663 0
-5665 -5664 0
5665 5663 5664 0
-5666 5624 0
-5666 5665 0
5666 -5624 -5665 0
-5667 -5624 0
-5667 -5665 0
5667 5624 5665 0
-5668 -5666 0
-5668 -5667 0
5668 5666 5667 0
-5669 5623 0
-5669 5668 0
5669 -5623 -5668 0
-5670 -5623 0
-5670 -5668 0
5670 5623 5668 0
-5671 -5669 0
-5671 -5670 0
5671 5669 5670 0
-5672 5622 0
-5672 5671 0
5672 -5622 -5671 0
-5673 -5622 0
-5673 -5671 0
5673 5622 5671 0
-5674 -5672 0
-5674 -5673 0
5674 5672 5673 0
-5675 5621 0
-5675 5674 0
5675 -5621 -5674 0
-5676 -5621 0
-5676 -5674 0
5676 5621 5674 0
-5677 -5675 0
-5677 -5676 0
5677 5675 5676 0
-5678 5620 0
-5678 5677 0
5678 -5620 -5677 0
-5679 -5620 0
-5679 -5677 0
5679 5620 5677 0
-5680 -5678 0
-5680 -5679 0
5680 5678 5679 0
-5681 5619 0
-5681 5680 0
5681 -5619 -5680 0
-5682 -5619 0
-5682 -5680 0
5682 5619 5680 0
-5683 -5681 0
-5683 -5682 0
5683 5681 5682 0
-5684 5618 0
-5684 5683 0
5684 -5618 -5683 0
-5685 -5618 0
-5685 -5683 0
5685 5618 5683 0
-5686 -5684 0
-5686 -5685 0
5686 5684 5685 0
-5687 5617 0
-5687 5686 0
5687 -5617 -5686 0
-5688 -5617 0
-5688 -5686 0
5688 5617 5686 0
-5689 -5687 0
-5689 -5688 0
5689 5687 5688 0
-5690 5616 0
-5690 5689 0
5690 -5616 -5689 0
-5691 -4379 0
-5691 5690 0
5691 4379 -5690 0
-5692 -4381 0
-5692 5691 0
5692 4381 -5691 0
-5693 -4387 0
-5693 5692 0
5693 4387 -5692 0
-5694 -4389 0
-5694 5693 0
5694 4389 -5693 0
-5695 -4395 0
-5695 5694 0
5695 4395 -5694 0
-5696 -4397 0
-5696 5695 0
5696 4397 -5695 0
-5697 -4403 0
-5697 5696 0
5697 4403 -5696 0
-5698 -4405 0
-5698 5697 0
5698 4405 -5697 0
-5699 -4411 0
-5699 5698 0
5699 4411 -5698 0
-5700 -4413 0
-5700 5699 0
5700 4413 -5699 0
-5701 -4419 0
-5701 5700 0
5701 4419 -5700 0
-5702 -4421 0
-5702 5701 0
5702 4421 -5701 0
-5703 -4427 0
-5703 5702 0
5703 4427 -5702 0
-5704 -4429 0
-5704 5703 0
5704 4429 -5703 0
-5705 -4435 0
-5705 5704 0
5705 4435 -5704 0
-5706 -4437 0
-5706 5705 0
5706 4437 -5705 0
-5707 -4443 0
-5707 5706 0
5707 4443 -5706 0
-5708 -4445 0
-5708 5707 0
5708 4445 -5707 0
-5709 -4451 0
-5709 5708 0
5709 4451 -5708 0
-5710 -4453 0
-5710 5709 0
5710 4453 -5709 0
-5711 -4459 0
-5711 5710 0
5711 4459 -5710 0
-5712 -4461 0
-5712 5711 0
5712 4461 -5711 0
-5713 -4467 0
-5713 5712 0
5713 4467 -5712 0
-5714 -4469 0
-5714 5713 0
5714 4469 -5713 0
-5715 -4475 0
-5715 5714 0
5715 4475 -5714 0
-5716 -4477 0
-5716 5715 0
5716 4477 -5715 0
-5717 -4483 0
-5717 5716 0
5717 4483 -5716 0
-5718 -4485 0
-5718 5717 0
5718 4485 -5717 0
-5719 -4491 0
-5719 5718 0
5719 4491 -5718 0
-5720 -4493 0
-5720 5719 0
5720 4493 -5719 0
-5721 -4499 0
-5721 5720 0
5721 4499 -5720 0
-5722 -4501 0
-5722 5721 0
5722 4501 -5721 0
-5723 -4507 0
-5723 5722 0
5723 4507 -5722 0
-5724 -4509 0
-5724 5723 0
5724 4509 -5723 0
-5725 -4515 0
-5725 5724 0
5725 4515 -5724 0
-5726 -4517 0
-5726 5725 0
5726 4517 -5725 0
-5727 -4523 0
-5727 5726 0
5727 4523 -5726 0
-5728 -4525 0
-5728 5727 0
5728 4525 -5727 0
-5729 -4531 0
-5729 5728 0
5729 4531 -5728 0
-5730 -4533 0
-5730 5729 0
5730 4533 -5729 0
-5731 -4539 0
-5731 5730 0
5731 4539 -5730 0
-5732 -4541 0
-5732 5731 0
5732 4541 -5731 0
-5733 -4547 0
-5733 5732 0
5733 4547 -5732 0
-5734 -4549 0
-5734 5733 0
5734 4549 -5733 0
-5735 -4555 0
-5735 5734 0
5735 4555 -5734 0
-5736 -4557 0
-5736 5735 0
5736 4557 -5735 0
-5737 -4563 0
-5737 5736 0
5737 4563 -5736 0
-5738 -4565 0
-5738 5737 0
5738 4565 -5737 0
-5739 -4571 0
-5739 5738 0
5739 4571 -5738 0
-5740 -4573 0
-5740 5739 0
5740 4573 -5739 0
-5741 5617 0
-5741 -5686 0
5741 -5617 5686 0
-5742 5618 0
-5742 -5683 0
5742 -5618 5683 0
-5743 5619 0
-5743 -5680 0
5743 -5619 5680 0
-5744 5620 0
-5744 -5677 0
5744 -5620 5677 0
-5745 5621 0
-5745 -5674 0
5745 -5621 5674 0
-5746 5622 0
-5746 -5671 0
5746 -5622 5671 0
-5747 5623 0
-5747 -5668 0
5747 -5623 5668 0
-5748 5624 0
-5748 -5665 0
5748 -5624 5665 0
-5749 5625 0
-5749 -5662 0
5749 -5625 5662 0
-5750 5626 0
-5750 -5659 0
5750 -5626 5659 0
-5751 5627 0
-5751 -5656 0
5751 -5627 5656 0
-5752 5628 0
-5752 -5653 0
5752 -5628 5653 0
-5753 5629 0
-5753 -5650 0
5753 -5629 5650 0
-5754 5630 0
-5754 -5647 0
5754 -5630 5647 0
-5755 5631 0
-5755 -5644 0
5755 -5631 5644 0
-5756 5632 0
-5756 -5641 0
5756 -5632 5641 0
-5757 5633 0
-5757 -5638 0
5757 -5633 5638 0
-5758 5634 0
-5758 5635 0
5758 -5634 -5635 0
-5759 5757 0
-5759 -5758 0
5759 -5757 5758 0
-5760 -5757 0
-5760 5758 0
5760 5757 -5758 0
-5761 -5759 0
-5761 -5760 0
5761 5759 5760 0
-5762 5756 0
-5762 5761 0
5762 -5756 -5761 0
-5763 -5756 0
-5763 -5761 0
5763 5756 5761 0
-5764 -5762 0
-5764 -5763 0
5764 5762 5763 0
-5765 5755 0
-5765 5764 0
5765 -5755 -5764 0
-5766 -5755 0
-5766 -5764 0
5766 5755 5764 0
-5767 -5765 0
-5767 -5766 0
5767 5765 5766 0
-5768 5754 0
-5768 5767 0
5768 -5754 -5767 0
-5769 -5754 0
-5769 -5767 0
5769 5754 5767 0
-5770 -5768 0
-5770 -5769 0
5770 5768 5769 0
-5771 5753 0
-5771 5770 0
5771 -5753 -5770 0
-5772 -5753 0
-5772 -5770 0
5772 5753 5770 0
-5773 -5771 0
-5773 -5772 0
5773 5771 5772 0
-5774 5752 0
-5774 5773 0
5774 -5752 -5773 0
-5775 -5752 0
-5775 -5773 0
5775 5752 5773 0
-5776 -5774 0
-5776 -5775 0
5776 5774 5775 0
-5777 5751 0
-5777 5776 0
5777 -5751 -5776 0
-5778 -5751 0
-5778 -5776 0
5778 5751 5776 0
-5779 -5777 0
-5779 -5778 0
5779 5777 5778 0
-5780 5750 0
-5780 5779 0
5780 -5750 -5779 0
-5781 -5750 0
-5781 -5779 0
5781 5750 5779 0
-5782 -5780 0
-5782 -5781 0
5782 5780 5781 0
-5783 5749 0
-5783 5782 0
5783 -5749 -5782 0
-5784 -5749 0
-5784 -5782 0
5784 5749 5782 0
-5785 -5783 0
-5785 -5784 0
5785 5783 5784 0
-5786 5748 0
-5786 5785 0
5786 -5748 -5785 0
-5787 -5748 0
-5787 -5785 0
5787 5748 5785 0
-5788 -5786 0
-5788 -5787 0
5788 5786 5787 0
-5789 5747 0
-5789 5788 0
5789 -5747 -5788 0
-5790 -5747 0
-5790 -5788 0
5790 5747 5788 0
-5791 -5789 0
-5791 -5790 0
5791 5789 5790 0
-5792 5746 0
-5792 5791 0
5792 -5746 -5791 0
-5793 -5746 0
-5793 -5791 0
5793 5746 5791 0
-5794 -5792 0
-5794 -5793 0
5794 5792 5793 0
-5795 5745 0
-5795 5794 0
5795 -5745 -5794 0
-5796 -5745 0
-5796 -5794 0
5796 5745 5794 0
-5797 -5795 0
-5797 -5796 0
5797 5795 5796 0
-5798 5744 0
-5798 5797 0
5798 -5744 -5797 0
-5799 -5744 0
-5799 -5797 0
5799 5744 5797 0
-5800 -5798 0
-5800 -5799 0
5800 5798 5799 0
-5801 5743 0
-5801 5800 0
5801 -5743 -5800 0
-5802 -5743 0
-5802 -5800 0
5802 5743 5800 0
-5803 -5801 0
-5803 -5802 0
5803 5801 5802 0
-5804 5742 0
-5804 5803 0
5804 -5742 -5803 0
-5805 -5742 0
-5805 -5803 0
5805 5742 5803 0
-5806 -5804 0
-5806 -5805 0
5806 5804 5805 0
-5807 5741 0
-5807 5806 0
5807 -5741 -5806 0
-5808 -5741 0
-5808 -5806 0
5808 5741 5806 0
-5809 -5807 0
-5809 -5808 0
5809 5807 5808 0
-5810 5740 0
-5810 5809 0
5810 -5740 -5809 0
5874 -7903 0
-5874 7903 0
5873 -7902 0
-5873 7902 0
5872 -7901 0
-5872 7901 0
5871 -7900 0
-5871 7900 0
5870 -7899 0
-5870 7899 0
5869 -7898 0
-5869 7898 0
5868 -7897 0
-5868 7897 0
5867 -7896 0
-5867 7896 0
5866 -7895 0
-5866 7895 0
5865 -7894 0
-5865 7894 0
5864 -7893 0
-5864 7893 0
5863 -7892 0
-5863 7892 0
5862 -7891 0
-5862 7891 0
5861 -7890 0
-5861 7890 0
5860 -7889 0
-5860 7889 0
5859 -7888 0
-5859 7888 0
5858 -7887 0
-5858 7887 0
5857 -7886 0
-5857 7886 0
5856 -7885 0
-5856 7885 0
5855 -7884 0
-5855 7884 0
5854 -7883 0
-5854 7883 0
5853 -7882 0
-5853 7882 0
5852 -7881 0
-5852 7881 0
5851 -7880 0
-5851 7880 0
5850 -7879 0
-5850 7879 0
5849 -7878 0
-5849 7878 0
5848 -7877 0
-5848 7877 0
5847 -7876 0
-5847 7876 0
5846 -7875 0
-5846 7875 0
5845 -7874 0
-5845 7874 0
5844 -7873 0
-5844 7873 0
5843 -7872 0
-5843 7872 0
5842 -7871 0
-5842 7871 0
5841 -7870 0
-5841 7870 0
5840 -7869 0
-5840 7869 0
-6019 -31 0
-6019 5840 0
6019 31 -5840 0
5839 -7868 0
-5839 7868 0
-6014 -30 0
-6014 5839 0
6014 30 -5839 0
5838 -7867 0
-5838 7867 0
-6009 -29 0
-6009 5838 0
6009 29 -5838 0
5837 -7866 0
-5837 7866 0
-6004 -28 0
-6004 5837 0
6004 28 -5837 0
5836 -7865 0
-5836 7865 0
-5999 -27 0
-5999 5836 0
5999 27 -5836 0
5835 -7864 0
-5835 7864 0
-5994 -26 0
-5994 5835 0
5994 26 -5835 0
5834 -7863 0
-5834 7863 0
-5989 -25 0
-5989 5834 0
5989 25 -5834 0
5833 -7862 0
-5833 7862 0
-5984 -24 0
-5984 5833 0
5984 24 -5833 0
5832 -7861 0
-5832 7861 0
-5979 -23 0
-5979 5832 0
5979 23 -5832 0
5831 -7860 0
-5831 7860 0
-5974 -22 0
-5974 5831 0
5974 22 -5831 0
5830 -7859 0
-5830 7859 0
-5969 -21 0
-5969 5830 0
5969 21 -5830 0
5829 -7858 0
-5829 7858 0
-5964 -20 0
-5964 5829 0
5964 20 -5829 0
5828 -7857 0
-5828 7857 0
-5959 -19 0
-5959 5828 0
5959 19 -5828 0
5827 -7856 0
-5827 7856 0
-5954 -18 0
-5954 5827 0
5954 18 -5827 0
5826 -7855 0
-5826 7855 0
-5949 -17 0
-5949 5826 0
5949 17 -5826 0
5825 -7854 0
-5825 7854 0
-5944 -16 0
-5944 5825 0
5944 16 -5825 0
5824 -7853 0
-5824 7853 0
-5939 -15 0
-5939 5824 0
5939 15 -5824 0
5823 -7852 0
-5823 7852 0
-5934 -14 0
-5934 5823 0
5934 14 -5823 0
5822 -7851 0
-5822 7851 0
-5929 -13 0
-5929 5822 0
5929 13 -5822 0
5821 -7850 0
-5821 7850 0
-5924 -12 0
-5924 5821 0
5924 12 -5821 0
5820 -7849 0
-5820 7849 0
-5919 -11 0
-5919 5820 0
5919 11 -5820 0
5819 -7848 0
-5819 7848 0
-5914 -10 0
-5914 5819 0
5914 10 -5819 0
5818 -7847 0
-5818 7847 0
-5909 -9 0
-5909 5818 0
5909 9 -5818 0
5817 -7846 0
-5817 7846 0
-5904 -8 0
-5904 5817 0
5904 8 -5817 0
5816 -7845 0
-5816 7845 0
-5899 -7 0
-5899 5816 0
5899 7 -5816 0
5815 -7844 0
-5815 7844 0
-5894 -6 0
-5894 5815 0
5894 6 -5815 0
5814 -7843 0
-5814 7843 0
-5889 -5 0
-5889 5814 0
5889 5 -5814 0
5813 -7842 0
-5813 7842 0
-5884 -4 0
-5884 5813 0
5884 4 -5813 0
5812 -7841 0
-5812 7841 0
-5879 -3 0
-5879 5812 0
5879 3 -5812 0
5811 -7840 0
-5811 7840 0
-5875 -2 0
-5875 5811 0
5875 2 -5811 0
-5876 2 0
-5876 -5811 0
5876 -2 5811 0
-5877 -5875 0
-5877 -5876 0
5877 5875 5876 0
-5878 -5875 0
-5878 -5877 0
5878 5875 5877 0
-5880 3 0
-5880 -5812 0
5880 -3 5812 0
-5881 -5879 0
-5881 -5880 0
5881 5879 5880 0
-5882 -5878 0
-5882 5881 0
5882 5878 -5881 0
-5883 -5879 0
-5883 -5882 0
5883 5879 5882 0
-5885 4 0
-5885 -5813 0
5885 -4 5813 0
-5886 -5884 0
-5886 -5885 0
5886 5884 5885 0
-5887 -5883 0
-5887 5886 0
5887 5883 -5886 0
-5888 -5884 0
-5888 -5887 0
5888 5884 5887 0
-5890 5 0
-5890 -5814 0
5890 -5 5814 0
-5891 -5889 0
-5891 -5890 0
5891 5889 5890 0
-5892 -5888 0
-5892 5891 0
5892 5888 -5891 0
-5893 -5889 0
-5893 -5892 0
5893 5889 5892 0
-5895 6 0
-5895 -5815 0
5895 -6 5815 0
-5896 -5894 0
-5896 -5895 0
5896 5894 5895 0
-5897 -5893 0
-5897 5896 0
5897 5893 -5896 0
-5898 -5894 0
-5898 -5897 0
5898 5894 5897 0
-5900 7 0
-5900 -5816 0
5900 -7 5816 0
-5901 -5899 0
-5901 -5900 0
5901 5899 5900 0
-5902 -5898 0
-5902 5901 0
5902 5898 -5901 0
-5903 -5899 0
-5903 -5902 0
5903 5899 5902 0
-5905 8 0
-5905 -5817 0
5905 -8 5817 0
-5906 -5904 0
-5906 -5905 0
5906 5904 5905 0
-5907 -5903 0
-5907 5906 0
5907 5903 -5906 0
-5908 -5904 0
-5908 -5907 0
5908 5904 5907 0
-5910 9 0
-5910 -5818 0
5910 -9 5818 0
-5911 -5909 0
-5911 -5910 0
5911 5909 5910 0
-5912 -5908 0
-5912 5911 0
5912 5908 -5911 0
-5913 -5909 0
-5913 -5912 0
5913 5909 5912 0
-5915 10 0
-5915 -5819 0
5915 -10 5819 0
-5916 -5914 0
-5916 -5915 0
5916 5914 5915 0
-5917 -5913 0
-5917 5916 0
5917 5913 -5916 0
-5918 -5914 0
-5918 -5917 0
5918 5914 5917 0
-5920 11 0
-5920 -5820 0
5920 -11 5820 0
-5921 -5919 0
-5921 -5920 0
5921 5919 5920 0
-5922 -5918 0
-5922 5921 0
5922 5918 -5921 0
-5923 -5919 0
-5923 -5922 0
5923 5919 5922 0
-5925 12 0
-5925 -5821 0
5925 -12 5821 0
-5926 -5924 0
-5926 -5925 0
5926 5924 5925 0
-5927 -5923 0
-5927 5926 0
5927 5923 -5926 0
-5928 -5924 0
-5928 -5927 0
5928 5924 5927 0
-5930 13 0
-5930 -5822 0
5930 -13 5822 0
-5931 -5929 0
-5931 -5930 0
5931 5929 5930 0
-5932 -5928 0
-5932 5931 0
5932 5928 -5931 0
-5933 -5929 0
-5933 -5932 0
5933 5929 5932 0
-5935 14 0
-5935 -5823 0
5935 -14 5823 0
-5936 -5934 0
-5936 -5935 0
5936 5934 5935 0
-5937 -5933 0
-5937 5936 0
5937 5933 -5936 0
-5938 -5934 0
-5938 -5937 0
5938 5934 5937 0
-5940 15 0
-5940 -5824 0
5940 -15 5824 0
-5941 -5939 0
-5941 -5940 0
5941 5939 5940 0
-5942 -5938 0
-5942 5941 0
5942 5938 -5941 0
-5943 -5939 0
-5943 -5942 0
5943 5939 5942 0
-5945 16 0
-5945 -5825 0
5945 -16 5825 0
-5946 -5944 0
-5946 -5945 0
5946 5944 5945 0
-5947 -5943 0
-5947 5946 0
5947 5943 -5946 0
-5948 -5944 0
-5948 -5947 0
5948 5944 5947 0
-5950 17 0
-5950 -5826 0
5950 -17 5826 0
-5951 -5949 0
-5951 -5950 0
5951 5949 5950 0
-5952 -5948 0
-5952 5951 0
5952 5948 -5951 0
-5953 -5949 0
-5953 -5952 0
5953 5949 5952 0
-5955 18 0
-5955 -5827 0
5955 -18 5827 0
-5956 -5954 0
-5956 -5955 0
5956 5954 5955 0
-5957 -5953 0
-5957 5956 0
5957 5953 -5956 0
-5958 -5954 0
-5958 -5957 0
5958 5954 5957 0
-5960 19 0
-5960 -5828 0
5960 -19 5828 0
-5961 -5959 0
-5961 -5960 0
5961 5959 5960 0
-5962 -5958 0
-5962 5961 0
5962 5958 -5961 0
-5963 -5959 0
-5963 -5962 0
5963 5959 5962 0
-5965 20 0
-5965 -5829 0
5965 -20 5829 0
-5966 -5964 0
-5966 -5965 0
5966 5964 5965 0
-5967 -5963 0
-5967 5966 0
5967 5963 -5966 0
-5968 -5964 0
-5968 -5967 0
5968 5964 5967 0
-5970 21 0
-5970 -5830 0
5970 -21 5830 0
-5971 -5969 0
-5971 -5970 0
5971 5969 5970 0
-5972 -5968 0
-5972 5971 0
5972 5968 -5971 0
-5973 -5969 0
-5973 -5972 0
5973 5969 5972 0
-5975 22 0
-5975 -5831 0
5975 -22 5831 0
-5976 -5974 0
-5976 -5975 0
5976 5974 5975 0
-5977 -5973 0
-5977 5976 0
5977 5973 -5976 0
-5978 -5974 0
-5978 -5977 0
5978 5974 5977 0
-5980 23 0
-5980 -5832 0
5980 -23 5832 0
-5981 -5979 0
-5981 -5980 0
5981 5979 5980 0
-5982 -5978 0
-5982 5981 0
5982 5978 -5981 0
-5983 -5979 0
-5983 -5982 0
5983 5979 5982 0
-5985 24 0
-5985 -5833 0
5985 -24 5833 0
-5986 -5984 0
-5986 -5985 0
5986 5984 5985 0
-5987 -5983 0
-5987 5986 0
5987 5983 -5986 0
-5988 -5984 0
-5988 -5987 0
5988 5984 5987 0
-5990 25 0
-5990 -5834 0
5990 -25 5834 0
-5991 -5989 0
-5991 -5990 0
5991 5989 5990 0
-5992 -5988 0
-5992 5991 0
5992 5988 -5991 0
-5993 -5989 0
-5993 -5992 0
5993 5989 5992 0
-5995 26 0
-5995 -5835 0
5995 -26 5835 0
-5996 -5994 0
-5996 -5995 0
5996 5994 5995 0
-5997 -5993 0
-5997 5996 0
5997 5993 -5996 0
-5998 -5994 0
-5998 -5997 0
5998 5994 5997 0
-6000 27 0
-6000 -5836 0
6000 -27 5836 0
-6001 -5999 0
-6001 -6000 0
6001 5999 6000 0
-6002 -5998 0
-6002 6001 0
6002 5998 -6001 0
-6003 -5999 0
-6003 -6002 0
6003 5999 6002 0
-6005 28 0
-6005 -5837 0
6005 -28 5837 0
-6006 -6004 0
-6006 -6005 0
6006 6004 6005 0
-6007 -6003 0
-6007 6006 0
6007 6003 -6006 0
-6008 -6004 0
-6008 -6007 0
6008 6004 6007 0
-6010 29 0
-6010 -5838 0
6010 -29 5838 0
-6011 -6009 0
-6011 -6010 0
6011 6009 6010 0
-6012 -6008 0
-6012 6011 0
6012 6008 -6011 0
-6013 -6009 0
-6013 -6012 0
6013 6009 6012 0
-6015 30 0
-6015 -5839 0
6015 -30 5839 0
-6016 -6014 0
-6016 -6015 0
6016 6014 6015 0
-6017 -6013 0
-6017 6016 0
6017 6013 -6016 0
-6018 -6014 0
-6018 -6017 0
6018 6014 6017 0
-6020 31 0
-6020 -5840 0
6020 -31 5840 0
-6021 -6019 0
-6021 -6020 0
6021 6019 6020 0
-6022 -6018 0
-6022 6021 0
6022 6018 -6021 0
-6023 -6019 0
-6023 -6022 0
6023 6019 6022 0
-6024 -5841 0
-6024 -6023 0
6024 5841 6023 0
-6025 -5841 0
-6025 -6024 0
6025 5841 6024 0
-6026 -5842 0
-6026 -6025 0
6026 5842 6025 0
-6027 -5842 0
-6027 -6026 0
6027 5842 6026 0
-6028 -5843 0
-6028 -6027 0
6028 5843 6027 0
-6029 -5843 0
-6029 -6028 0
6029 5843 6028 0
-6030 -5844 0
-6030 -6029 0
6030 5844 6029 0
-6031 -5844 0
-6031 -6030 0
6031 5844 6030 0
-6032 -5845 0
-6032 -6031 0
6032 5845 6031 0
-6033 -5845 0
-6033 -6032 0
6033 5845 6032 0
-6034 -5846 0
-6034 -6033 0
6034 5846 6033 0
-6035 -5846 0
-6035 -6034 0
6035 5846 6034 0
-6036 -5847 0
-6036 -6035 0
6036 5847 6035 0
-6037 -5847 0
-6037 -6036 0
6037 5847 6036 0
-6038 -5848 0
-6038 -6037 0
6038 5848 6037 0
-6039 -5848 0
-6039 -6038 0
6039 5848 6038 0
-6040 -5849 0
-6040 -6039 0
6040 5849 6039 0
-6041 -5849 0
-6041 -6040 0
6041 5849 6040 0
-6042 -5850 0
-6042 -6041 0
6042 5850 6041 0
-6043 -5850 0
-6043 -6042 0
6043 5850 6042 0
-6044 -5851 0
-6044 -6043 0
6044 5851 6043 0
-6045 -5851 0
-6045 -6044 0
6045 5851 6044 0
-6046 -5852 0
-6046 -6045 0
6046 5852 6045 0
-6047 -5852 0
-6047 -6046 0
6047 5852 6046 0
-6048 -5853 0
-6048 -6047 0
6048 5853 6047 0
-6049 -5853 0
-6049 -6048 0
6049 5853 6048 0
-6050 -5854 0
-6050 -6049 0
6050 5854 6049 0
-6051 -5854 0
-6051 -6050 0
6051 5854 6050 0
-6052 -5855 0
-6052 -6051 0
6052 5855 6051 0
-6053 -5855 0
-6053 -6052 0
6053 5855 6052 0
-6054 -5856 0
-6054 -6053 0
6054 5856 6053 0
-6055 -5856 0
-6055 -6054 0
6055 5856 6054 0
-6056 -5857 0
-6056 -6055 0
6056 5857 6055 0
-6057 -5857 0
-6057 -6056 0
6057 5857 6056 0
-6058 -5858 0
-6058 -6057 0
6058 5858 6057 0
-6059 -5858 0
-6059 -6058 0
6059 5858 6058 0
-6060 -5859 0
-6060 -6059 0
6060 5859 6059 0
-6061 -5859 0
-6061 -6060 0
6061 5859 6060 0
-6062 -5860 0
-6062 -6061 0
6062 5860 6061 0
-6063 -5860 0
-6063 -6062 0
6063 5860 6062 0
-6064 -5861 0
-6064 -6063 0
6064 5861 6063 0
-6065 -5861 0
-6065 -6064 0
6065 5861 6064 0
-6066 -5862 0
-6066 -6065 0
6066 5862 6065 0
-6067 -5862 0
-6067 -6066 0
6067 5862 6066 0
-6068 -5863 0
-6068 -6067 0
6068 5863 6067 0
-6069 -5863 0
-6069 -6068 0
6069 5863 6068 0
-6070 -5864 0
-6070 -6069 0
6070 5864 6069 0
-6071 -5864 0
-6071 -6070 0
6071 5864 6070 0
-6072 -5865 0
-6072 -6071 0
6072 5865 6071 0
-6073 -5865 0
-6073 -6072 0
6073 5865 6072 0
-6074 -5866 0
-6074 -6073 0
6074 5866 6073 0
-6075 -5866 0
-6075 -6074 0
6075 5866 6074 0
-6076 -5867 0
-6076 -6075 0
6076 5867 6075 0
-6077 -5867 0
-6077 -6076 0
6077 5867 6076 0
-6078 -5868 0
-6078 -6077 0
6078 5868 6077 0
-6079 -5868 0
-6079 -6078 0
6079 5868 6078 0
-6080 -5869 0
-6080 -6079 0
6080 5869 6079 0
-6081 -5869 0
-6081 -6080 0
6081 5869 6080 0
-6082 -5870 0
-6082 -6081 0
6082 5870 6081 0
-6083 -5870 0
-6083 -6082 0
6083 5870 6082 0
-6084 -5871 0
-6084 -6083 0
6084 5871 6083 0
-6085 -5871 0
-6085 -6084 0
6085 5871 6084 0
-6086 -5872 0
-6086 -6085 0
6086 5872 6085 0
-6087 -5872 0
-6087 -6086 0
6087 5872 6086 0
-6088 -5873 0
-6088 -6087 0
6088 5873 6087 0
-6089 -5873 0
-6089 -6088 0
6089 5873 6088 0
-6090 -5874 0
-6090 -6089 0
6090 5874 6089 0
-6091 -5874 0
-6091 -6090 0
6091 5874 6090 0
-6092 5810 0
-6092 -6091 0
6092 -5810 6091 0
6092 0
