p cnf 17385 47675
31 -16339 0
-31 16339 0
30 -16338 0
-30 16338 0
29 -16337 0
-29 16337 0
28 -16336 0
-28 16336 0
27 -16335 0
-27 16335 0
26 -16334 0
-26 16334 0
25 -16333 0
-25 16333 0
24 -16332 0
-24 16332 0
23 -16331 0
-23 16331 0
22 -16330 0
-22 16330 0
21 -16329 0
-21 16329 0
20 -16328 0
-20 16328 0
19 -16327 0
-19 16327 0
18 -16326 0
-18 16326 0
17 -16325 0
-17 16325 0
16 -16324 0
-16 16324 0
15 -16323 0
-15 16323 0
14 -16322 0
-14 16322 0
13 -16321 0
-13 16321 0
12 -16320 0
-12 16320 0
11 -16319 0
-11 16319 0
10 -16318 0
-10 16318 0
9 -16317 0
-9 16317 0
8 -16316 0
-8 16316 0
7 -16315 0
-7 16315 0
6 -16314 0
-6 16314 0
5 -16313 0
-5 16313 0
4 -16312 0
-4 16312 0
2 -16310 0
-2 16310 0
3 -16311 0
-3 16311 0
-32 2 0
-32 3 0
32 -2 -3 0
-33 4 0
-33 32 0
33 -4 -32 0
-34 -5 0
-34 33 0
34 5 -33 0
-35 -5 0
-35 -34 0
35 5 34 0
-36 -6 0
-36 -35 0
36 6 35 0
-37 -6 0
-37 -36 0
37 6 36 0
-38 -7 0
-38 -37 0
38 7 37 0
-39 -7 0
-39 -38 0
39 7 38 0
-40 -8 0
-40 -39 0
40 8 39 0
-41 -8 0
-41 -40 0
41 8 40 0
-42 -9 0
-42 -41 0
42 9 41 0
-43 -9 0
-43 -42 0
43 9 42 0
-44 -10 0
-44 -43 0
44 10 43 0
-45 -10 0
-45 -44 0
45 10 44 0
-46 11 0
-46 -45 0
46 -11 45 0
-47 -12 0
-47 46 0
47 12 -46 0
-48 -12 0
-48 -47 0
48 12 47 0
-49 -13 0
-49 -48 0
49 13 48 0
-50 -13 0
-50 -49 0
50 13 49 0
-51 14 0
-51 -50 0
51 -14 50 0
-52 -15 0
-52 51 0
52 15 -51 0
-53 -15 0
-53 -52 0
53 15 52 0
-54 -16 0
-54 -53 0
54 16 53 0
-55 -16 0
-55 -54 0
55 16 54 0
-56 -17 0
-56 -55 0
56 17 55 0
-57 -17 0
-57 -56 0
57 17 56 0
-58 -18 0
-58 -57 0
58 18 57 0
-59 -18 0
-59 -58 0
59 18 58 0
-60 -19 0
-60 -59 0
60 19 59 0
-61 -19 0
-61 -60 0
61 19 60 0
-62 -20 0
-62 -61 0
62 20 61 0
-63 -20 0
-63 -62 0
63 20 62 0
-64 -21 0
-64 -63 0
64 21 63 0
-65 -21 0
-65 -64 0
65 21 64 0
-66 -22 0
-66 -65 0
66 22 65 0
-67 -22 0
-67 -66 0
67 22 66 0
-68 -23 0
-68 -67 0
68 23 67 0
-69 -23 0
-69 -68 0
69 23 68 0
-70 -24 0
-70 -69 0
70 24 69 0
-71 -24 0
-71 -70 0
71 24 70 0
-72 -25 0
-72 -71 0
72 25 71 0
-73 -25 0
-73 -72 0
73 25 72 0
-74 -26 0
-74 -73 0
74 26 73 0
-75 -26 0
-75 -74 0
75 26 74 0
-76 -27 0
-76 -75 0
76 27 75 0
-77 -27 0
-77 -76 0
77 27 76 0
-78 -28 0
-78 -77 0
78 28 77 0
-79 -28 0
-79 -78 0
79 28 78 0
-80 -29 0
-80 -79 0
80 29 79 0
-81 -29 0
-81 -80 0
81 29 80 0
-82 -30 0
-82 -81 0
82 30 81 0
-83 -30 0
-83 -82 0
83 30 82 0
-84 -31 0
-84 -83 0
84 31 83 0
-85 -31 0
-85 -84 0
85 31 84 0
-86 -2 0
-86 -3 0
86 2 3 0
-87 -4 0
-87 86 0
87 4 -86 0
-88 -5 0
-88 87 0
88 5 -87 0
-89 -6 0
-89 88 0
89 6 -88 0
-90 -7 0
-90 89 0
90 7 -89 0
-91 -8 0
-91 90 0
91 8 -90 0
-92 -9 0
-92 91 0
92 9 -91 0
-93 -10 0
-93 92 0
93 10 -92 0
-94 11 0
-94 93 0
94 -11 -93 0
-95 11 0
-95 -94 0
95 -11 94 0
-96 -12 0
-96 -95 0
96 12 95 0
-97 13 0
-97 96 0
97 -13 -96 0
-98 13 0
-98 -97 0
98 -13 97 0
-99 -14 0
-99 -98 0
99 14 98 0
-100 -15 0
-100 99 0
100 15 -99 0
-101 16 0
-101 100 0
101 -16 -100 0
-102 16 0
-102 -101 0
102 -16 101 0
-103 17 0
-103 -102 0
103 -17 102 0
-104 17 0
-104 -103 0
104 -17 103 0
-105 -18 0
-105 -104 0
105 18 104 0
-106 19 0
-106 105 0
106 -19 -105 0
-107 19 0
-107 -106 0
107 -19 106 0
-108 -20 0
-108 -107 0
108 20 107 0
-109 21 0
-109 108 0
109 -21 -108 0
-110 21 0
-110 -109 0
110 -21 109 0
-111 22 0
-111 -110 0
111 -22 110 0
-112 22 0
-112 -111 0
112 -22 111 0
-113 -23 0
-113 -112 0
113 23 112 0
-114 -24 0
-114 113 0
114 24 -113 0
-115 25 0
-115 114 0
115 -25 -114 0
-116 25 0
-116 -115 0
116 -25 115 0
-117 26 0
-117 -116 0
117 -26 116 0
-118 26 0
-118 -117 0
118 -26 117 0
-119 27 0
-119 -118 0
119 -27 118 0
-120 27 0
-120 -119 0
120 -27 119 0
-121 -28 0
-121 -120 0
121 28 120 0
-122 29 0
-122 121 0
122 -29 -121 0
-123 29 0
-123 -122 0
123 -29 122 0
-124 30 0
-124 -123 0
124 -30 123 0
-125 30 0
-125 -124 0
125 -30 124 0
-126 31 0
-126 -125 0
126 -31 125 0
-127 31 0
-127 -126 0
127 -31 126 0
-128 -85 0
-128 -127 0
128 85 127 0
192 -16403 0
-192 16403 0
191 -16402 0
-191 16402 0
190 -16401 0
-190 16401 0
189 -16400 0
-189 16400 0
188 -16399 0
-188 16399 0
187 -16398 0
-187 16398 0
186 -16397 0
-186 16397 0
185 -16396 0
-185 16396 0
184 -16395 0
-184 16395 0
183 -16394 0
-183 16394 0
182 -16393 0
-182 16393 0
181 -16392 0
-181 16392 0
180 -16391 0
-180 16391 0
179 -16390 0
-179 16390 0
178 -16389 0
-178 16389 0
177 -16388 0
-177 16388 0
176 -16387 0
-176 16387 0
175 -16386 0
-175 16386 0
174 -16385 0
-174 16385 0
173 -16384 0
-173 16384 0
172 -16383 0
-172 16383 0
171 -16382 0
-171 16382 0
170 -16381 0
-170 16381 0
169 -16380 0
-169 16380 0
168 -16379 0
-168 16379 0
167 -16378 0
-167 16378 0
166 -16377 0
-166 16377 0
165 -16376 0
-165 16376 0
164 -16375 0
-164 16375 0
163 -16374 0
-163 16374 0
162 -16373 0
-162 16373 0
161 -16372 0
-161 16372 0
160 -16371 0
-160 16371 0
-383 30 0
-383 31 0
383 -30 -31 0
-376 29 0
-376 30 0
376 -29 -30 0
-369 28 0
-369 29 0
369 -28 -29 0
-362 27 0
-362 28 0
362 -27 -28 0
-355 26 0
-355 27 0
355 -26 -27 0
-348 25 0
-348 26 0
348 -25 -26 0
-341 24 0
-341 25 0
341 -24 -25 0
-334 23 0
-334 24 0
334 -23 -24 0
-327 22 0
-327 23 0
327 -22 -23 0
-320 21 0
-320 22 0
320 -21 -22 0
-313 20 0
-313 21 0
313 -20 -21 0
-306 19 0
-306 20 0
306 -19 -20 0
-299 18 0
-299 19 0
299 -18 -19 0
-292 17 0
-292 18 0
292 -17 -18 0
-285 16 0
-285 17 0
285 -16 -17 0
-278 15 0
-278 16 0
278 -15 -16 0
-271 14 0
-271 15 0
271 -14 -15 0
-264 13 0
-264 14 0
264 -13 -14 0
-257 12 0
-257 13 0
257 -12 -13 0
-250 11 0
-250 12 0
250 -11 -12 0
-243 10 0
-243 11 0
243 -10 -11 0
-236 9 0
-236 10 0
236 -9 -10 0
-229 8 0
-229 9 0
229 -8 -9 0
-222 7 0
-222 8 0
222 -7 -8 0
-215 6 0
-215 7 0
215 -6 -7 0
-208 5 0
-208 6 0
208 -5 -6 0
-201 4 0
-201 5 0
201 -4 -5 0
-194 3 0
-194 4 0
194 -3 -4 0
-195 -3 0
-195 -4 0
195 3 4 0
-196 -194 0
-196 -195 0
196 194 195 0
-197 32 0
-197 196 0
197 -32 -196 0
-200 -194 0
-200 -197 0
200 194 197 0
-202 -4 0
-202 -5 0
202 4 5 0
-203 -201 0
-203 -202 0
203 201 202 0
-204 -200 0
-204 203 0
204 200 -203 0
-207 -201 0
-207 -204 0
207 201 204 0
-209 -5 0
-209 -6 0
209 5 6 0
-210 -208 0
-210 -209 0
210 208 209 0
-211 -207 0
-211 210 0
211 207 -210 0
-214 -208 0
-214 -211 0
214 208 211 0
-216 -6 0
-216 -7 0
216 6 7 0
-217 -215 0
-217 -216 0
217 215 216 0
-218 -214 0
-218 217 0
218 214 -217 0
-221 -215 0
-221 -218 0
221 215 218 0
-223 -7 0
-223 -8 0
223 7 8 0
-224 -222 0
-224 -223 0
224 222 223 0
-225 -221 0
-225 224 0
225 221 -224 0
-228 -222 0
-228 -225 0
228 222 225 0
-230 -8 0
-230 -9 0
230 8 9 0
-231 -229 0
-231 -230 0
231 229 230 0
-232 -228 0
-232 231 0
232 228 -231 0
-235 -229 0
-235 -232 0
235 229 232 0
-237 -9 0
-237 -10 0
237 9 10 0
-238 -236 0
-238 -237 0
238 236 237 0
-239 -235 0
-239 238 0
239 235 -238 0
-242 -236 0
-242 -239 0
242 236 239 0
-244 -10 0
-244 -11 0
244 10 11 0
-245 -243 0
-245 -244 0
245 243 244 0
-246 -242 0
-246 245 0
246 242 -245 0
-249 -243 0
-249 -246 0
249 243 246 0
-251 -11 0
-251 -12 0
251 11 12 0
-252 -250 0
-252 -251 0
252 250 251 0
-253 -249 0
-253 252 0
253 249 -252 0
-256 -250 0
-256 -253 0
256 250 253 0
-258 -12 0
-258 -13 0
258 12 13 0
-259 -257 0
-259 -258 0
259 257 258 0
-260 -256 0
-260 259 0
260 256 -259 0
-263 -257 0
-263 -260 0
263 257 260 0
-265 -13 0
-265 -14 0
265 13 14 0
-266 -264 0
-266 -265 0
266 264 265 0
-267 -263 0
-267 266 0
267 263 -266 0
-270 -264 0
-270 -267 0
270 264 267 0
-272 -14 0
-272 -15 0
272 14 15 0
-273 -271 0
-273 -272 0
273 271 272 0
-274 -270 0
-274 273 0
274 270 -273 0
-277 -271 0
-277 -274 0
277 271 274 0
-279 -15 0
-279 -16 0
279 15 16 0
-280 -278 0
-280 -279 0
280 278 279 0
-281 -277 0
-281 280 0
281 277 -280 0
-284 -278 0
-284 -281 0
284 278 281 0
-286 -16 0
-286 -17 0
286 16 17 0
-287 -285 0
-287 -286 0
287 285 286 0
-288 -284 0
-288 287 0
288 284 -287 0
-291 -285 0
-291 -288 0
291 285 288 0
-293 -17 0
-293 -18 0
293 17 18 0
-294 -292 0
-294 -293 0
294 292 293 0
-295 -291 0
-295 294 0
295 291 -294 0
-298 -292 0
-298 -295 0
298 292 295 0
-300 -18 0
-300 -19 0
300 18 19 0
-301 -299 0
-301 -300 0
301 299 300 0
-302 -298 0
-302 301 0
302 298 -301 0
-305 -299 0
-305 -302 0
305 299 302 0
-307 -19 0
-307 -20 0
307 19 20 0
-308 -306 0
-308 -307 0
308 306 307 0
-309 -305 0
-309 308 0
309 305 -308 0
-312 -306 0
-312 -309 0
312 306 309 0
-314 -20 0
-314 -21 0
314 20 21 0
-315 -313 0
-315 -314 0
315 313 314 0
-316 -312 0
-316 315 0
316 312 -315 0
-319 -313 0
-319 -316 0
319 313 316 0
-321 -21 0
-321 -22 0
321 21 22 0
-322 -320 0
-322 -321 0
322 320 321 0
-323 -319 0
-323 322 0
323 319 -322 0
-326 -320 0
-326 -323 0
326 320 323 0
-328 -22 0
-328 -23 0
328 22 23 0
-329 -327 0
-329 -328 0
329 327 328 0
-330 -326 0
-330 329 0
330 326 -329 0
-333 -327 0
-333 -330 0
333 327 330 0
-335 -23 0
-335 -24 0
335 23 24 0
-336 -334 0
-336 -335 0
336 334 335 0
-337 -333 0
-337 336 0
337 333 -336 0
-340 -334 0
-340 -337 0
340 334 337 0
-342 -24 0
-342 -25 0
342 24 25 0
-343 -341 0
-343 -342 0
343 341 342 0
-344 -340 0
-344 343 0
344 340 -343 0
-347 -341 0
-347 -344 0
347 341 344 0
-349 -25 0
-349 -26 0
349 25 26 0
-350 -348 0
-350 -349 0
350 348 349 0
-351 -347 0
-351 350 0
351 347 -350 0
-354 -348 0
-354 -351 0
354 348 351 0
-356 -26 0
-356 -27 0
356 26 27 0
-357 -355 0
-357 -356 0
357 355 356 0
-358 -354 0
-358 357 0
358 354 -357 0
-361 -355 0
-361 -358 0
361 355 358 0
-363 -27 0
-363 -28 0
363 27 28 0
-364 -362 0
-364 -363 0
364 362 363 0
-365 -361 0
-365 364 0
365 361 -364 0
-368 -362 0
-368 -365 0
368 362 365 0
-370 -28 0
-370 -29 0
370 28 29 0
-371 -369 0
-371 -370 0
371 369 370 0
-372 -368 0
-372 371 0
372 368 -371 0
-375 -369 0
-375 -372 0
375 369 372 0
-377 -29 0
-377 -30 0
377 29 30 0
-378 -376 0
-378 -377 0
378 376 377 0
-379 -375 0
-379 378 0
379 375 -378 0
-382 -376 0
-382 -379 0
382 376 379 0
-384 -30 0
-384 -31 0
384 30 31 0
-385 -383 0
-385 -384 0
385 383 384 0
-386 -382 0
-386 385 0
386 382 -385 0
-389 -383 0
-389 -386 0
389 383 386 0
-390 31 0
-390 -389 0
390 -31 389 0
-391 -31 0
-391 389 0
391 31 -389 0
-392 -390 0
-392 -391 0
392 390 391 0
-387 382 0
-387 -385 0
387 -382 385 0
-388 -386 0
-388 -387 0
388 386 387 0
-380 375 0
-380 -378 0
380 -375 378 0
-381 -379 0
-381 -380 0
381 379 380 0
-373 368 0
-373 -371 0
373 -368 371 0
-374 -372 0
-374 -373 0
374 372 373 0
-366 361 0
-366 -364 0
366 -361 364 0
-367 -365 0
-367 -366 0
367 365 366 0
-359 354 0
-359 -357 0
359 -354 357 0
-360 -358 0
-360 -359 0
360 358 359 0
-352 347 0
-352 -350 0
352 -347 350 0
-353 -351 0
-353 -352 0
353 351 352 0
-345 340 0
-345 -343 0
345 -340 343 0
-346 -344 0
-346 -345 0
346 344 345 0
-338 333 0
-338 -336 0
338 -333 336 0
-339 -337 0
-339 -338 0
339 337 338 0
-331 326 0
-331 -329 0
331 -326 329 0
-332 -330 0
-332 -331 0
332 330 331 0
-324 319 0
-324 -322 0
324 -319 322 0
-325 -323 0
-325 -324 0
325 323 324 0
-317 312 0
-317 -315 0
317 -312 315 0
-318 -316 0
-318 -317 0
318 316 317 0
-310 305 0
-310 -308 0
310 -305 308 0
-311 -309 0
-311 -310 0
311 309 310 0
-303 298 0
-303 -301 0
303 -298 301 0
-304 -302 0
-304 -303 0
304 302 303 0
-296 291 0
-296 -294 0
296 -291 294 0
-297 -295 0
-297 -296 0
297 295 296 0
-289 284 0
-289 -287 0
289 -284 287 0
-290 -288 0
-290 -289 0
290 288 289 0
-282 277 0
-282 -280 0
282 -277 280 0
-283 -281 0
-283 -282 0
283 281 282 0
-275 270 0
-275 -273 0
275 -270 273 0
-276 -274 0
-276 -275 0
276 274 275 0
-268 263 0
-268 -266 0
268 -263 266 0
-269 -267 0
-269 -268 0
269 267 268 0
-261 256 0
-261 -259 0
261 -256 259 0
-262 -260 0
-262 -261 0
262 260 261 0
-254 249 0
-254 -252 0
254 -249 252 0
-255 -253 0
-255 -254 0
255 253 254 0
-247 242 0
-247 -245 0
247 -242 245 0
-248 -246 0
-248 -247 0
248 246 247 0
-240 235 0
-240 -238 0
240 -235 238 0
-241 -239 0
-241 -240 0
241 239 240 0
-233 228 0
-233 -231 0
233 -228 231 0
-234 -232 0
-234 -233 0
234 232 233 0
-226 221 0
-226 -224 0
226 -221 224 0
-227 -225 0
-227 -226 0
227 225 226 0
-219 214 0
-219 -217 0
219 -214 217 0
-220 -218 0
-220 -219 0
220 218 219 0
-212 207 0
-212 -210 0
212 -207 210 0
-213 -211 0
-213 -212 0
213 211 212 0
-205 200 0
-205 -203 0
205 -200 203 0
-206 -204 0
-206 -205 0
206 204 205 0
-198 -32 0
-198 -196 0
198 32 196 0
-199 -197 0
-199 -198 0
199 197 198 0
-193 -32 0
-193 -86 0
193 32 86 0
-393 2 0
-393 193 0
393 -2 -193 0
-396 199 0
-396 393 0
396 -199 -393 0
-399 206 0
-399 396 0
399 -206 -396 0
-402 213 0
-402 399 0
402 -213 -399 0
-405 220 0
-405 402 0
405 -220 -402 0
-408 227 0
-408 405 0
408 -227 -405 0
-411 234 0
-411 408 0
411 -234 -408 0
-414 241 0
-414 411 0
414 -241 -411 0
-417 248 0
-417 414 0
417 -248 -414 0
-420 255 0
-420 417 0
420 -255 -417 0
-423 262 0
-423 420 0
423 -262 -420 0
-426 269 0
-426 423 0
426 -269 -423 0
-429 276 0
-429 426 0
429 -276 -426 0
-432 283 0
-432 429 0
432 -283 -429 0
-435 290 0
-435 432 0
435 -290 -432 0
-438 297 0
-438 435 0
438 -297 -435 0
-441 304 0
-441 438 0
441 -304 -438 0
-444 311 0
-444 441 0
444 -311 -441 0
-447 318 0
-447 444 0
447 -318 -444 0
-450 325 0
-450 447 0
450 -325 -447 0
-453 332 0
-453 450 0
453 -332 -450 0
-456 339 0
-456 453 0
456 -339 -453 0
-459 346 0
-459 456 0
459 -346 -456 0
-462 353 0
-462 459 0
462 -353 -459 0
-465 360 0
-465 462 0
465 -360 -462 0
-468 367 0
-468 465 0
468 -367 -465 0
-471 374 0
-471 468 0
471 -374 -468 0
-474 381 0
-474 471 0
474 -381 -471 0
-477 388 0
-477 474 0
477 -388 -474 0
-480 392 0
-480 477 0
480 -392 -477 0
-483 390 0
-483 480 0
483 -390 -480 0
-579 160 0
-579 -483 0
579 -160 483 0
-580 -160 0
-580 483 0
580 160 -483 0
-581 -579 0
-581 -580 0
581 579 580 0
159 -16370 0
-159 16370 0
-484 -390 0
-484 -480 0
484 390 480 0
-485 -483 0
-485 -484 0
485 483 484 0
-576 159 0
-576 -485 0
576 -159 485 0
-577 -159 0
-577 485 0
577 159 -485 0
-578 -576 0
-578 -577 0
578 576 577 0
158 -16369 0
-158 16369 0
-481 -392 0
-481 -477 0
481 392 477 0
-482 -480 0
-482 -481 0
482 480 481 0
-573 158 0
-573 -482 0
573 -158 482 0
-574 -158 0
-574 482 0
574 158 -482 0
-575 -573 0
-575 -574 0
575 573 574 0
157 -16368 0
-157 16368 0
-478 -388 0
-478 -474 0
478 388 474 0
-479 -477 0
-479 -478 0
479 477 478 0
-570 157 0
-570 -479 0
570 -157 479 0
-571 -157 0
-571 479 0
571 157 -479 0
-572 -570 0
-572 -571 0
572 570 571 0
156 -16367 0
-156 16367 0
-475 -381 0
-475 -471 0
475 381 471 0
-476 -474 0
-476 -475 0
476 474 475 0
-567 156 0
-567 -476 0
567 -156 476 0
-568 -156 0
-568 476 0
568 156 -476 0
-569 -567 0
-569 -568 0
569 567 568 0
155 -16366 0
-155 16366 0
-472 -374 0
-472 -468 0
472 374 468 0
-473 -471 0
-473 -472 0
473 471 472 0
-564 155 0
-564 -473 0
564 -155 473 0
-565 -155 0
-565 473 0
565 155 -473 0
-566 -564 0
-566 -565 0
566 564 565 0
154 -16365 0
-154 16365 0
-469 -367 0
-469 -465 0
469 367 465 0
-470 -468 0
-470 -469 0
470 468 469 0
-561 154 0
-561 -470 0
561 -154 470 0
-562 -154 0
-562 470 0
562 154 -470 0
-563 -561 0
-563 -562 0
563 561 562 0
153 -16364 0
-153 16364 0
-466 -360 0
-466 -462 0
466 360 462 0
-467 -465 0
-467 -466 0
467 465 466 0
-558 153 0
-558 -467 0
558 -153 467 0
-559 -153 0
-559 467 0
559 153 -467 0
-560 -558 0
-560 -559 0
560 558 559 0
152 -16363 0
-152 16363 0
-463 -353 0
-463 -459 0
463 353 459 0
-464 -462 0
-464 -463 0
464 462 463 0
-555 152 0
-555 -464 0
555 -152 464 0
-556 -152 0
-556 464 0
556 152 -464 0
-557 -555 0
-557 -556 0
557 555 556 0
151 -16362 0
-151 16362 0
-460 -346 0
-460 -456 0
460 346 456 0
-461 -459 0
-461 -460 0
461 459 460 0
-552 151 0
-552 -461 0
552 -151 461 0
-553 -151 0
-553 461 0
553 151 -461 0
-554 -552 0
-554 -553 0
554 552 553 0
150 -16361 0
-150 16361 0
-457 -339 0
-457 -453 0
457 339 453 0
-458 -456 0
-458 -457 0
458 456 457 0
-549 150 0
-549 -458 0
549 -150 458 0
-550 -150 0
-550 458 0
550 150 -458 0
-551 -549 0
-551 -550 0
551 549 550 0
149 -16360 0
-149 16360 0
-454 -332 0
-454 -450 0
454 332 450 0
-455 -453 0
-455 -454 0
455 453 454 0
-546 149 0
-546 -455 0
546 -149 455 0
-547 -149 0
-547 455 0
547 149 -455 0
-548 -546 0
-548 -547 0
548 546 547 0
148 -16359 0
-148 16359 0
-451 -325 0
-451 -447 0
451 325 447 0
-452 -450 0
-452 -451 0
452 450 451 0
-543 148 0
-543 -452 0
543 -148 452 0
-544 -148 0
-544 452 0
544 148 -452 0
-545 -543 0
-545 -544 0
545 543 544 0
147 -16358 0
-147 16358 0
-448 -318 0
-448 -444 0
448 318 444 0
-449 -447 0
-449 -448 0
449 447 448 0
-540 147 0
-540 -449 0
540 -147 449 0
-541 -147 0
-541 449 0
541 147 -449 0
-542 -540 0
-542 -541 0
542 540 541 0
146 -16357 0
-146 16357 0
-445 -311 0
-445 -441 0
445 311 441 0
-446 -444 0
-446 -445 0
446 444 445 0
-537 146 0
-537 -446 0
537 -146 446 0
-538 -146 0
-538 446 0
538 146 -446 0
-539 -537 0
-539 -538 0
539 537 538 0
145 -16356 0
-145 16356 0
-442 -304 0
-442 -438 0
442 304 438 0
-443 -441 0
-443 -442 0
443 441 442 0
-534 145 0
-534 -443 0
534 -145 443 0
-535 -145 0
-535 443 0
535 145 -443 0
-536 -534 0
-536 -535 0
536 534 535 0
144 -16355 0
-144 16355 0
-439 -297 0
-439 -435 0
439 297 435 0
-440 -438 0
-440 -439 0
440 438 439 0
-531 144 0
-531 -440 0
531 -144 440 0
-532 -144 0
-532 440 0
532 144 -440 0
-533 -531 0
-533 -532 0
533 531 532 0
143 -16354 0
-143 16354 0
-436 -290 0
-436 -432 0
436 290 432 0
-437 -435 0
-437 -436 0
437 435 436 0
-528 143 0
-528 -437 0
528 -143 437 0
-529 -143 0
-529 437 0
529 143 -437 0
-530 -528 0
-530 -529 0
530 528 529 0
142 -16353 0
-142 16353 0
-433 -283 0
-433 -429 0
433 283 429 0
-434 -432 0
-434 -433 0
434 432 433 0
-525 142 0
-525 -434 0
525 -142 434 0
-526 -142 0
-526 434 0
526 142 -434 0
-527 -525 0
-527 -526 0
527 525 526 0
141 -16352 0
-141 16352 0
-430 -276 0
-430 -426 0
430 276 426 0
-431 -429 0
-431 -430 0
431 429 430 0
-522 141 0
-522 -431 0
522 -141 431 0
-523 -141 0
-523 431 0
523 141 -431 0
-524 -522 0
-524 -523 0
524 522 523 0
140 -16351 0
-140 16351 0
-427 -269 0
-427 -423 0
427 269 423 0
-428 -426 0
-428 -427 0
428 426 427 0
-519 140 0
-519 -428 0
519 -140 428 0
-520 -140 0
-520 428 0
520 140 -428 0
-521 -519 0
-521 -520 0
521 519 520 0
139 -16350 0
-139 16350 0
-424 -262 0
-424 -420 0
424 262 420 0
-425 -423 0
-425 -424 0
425 423 424 0
-516 139 0
-516 -425 0
516 -139 425 0
-517 -139 0
-517 425 0
517 139 -425 0
-518 -516 0
-518 -517 0
518 516 517 0
138 -16349 0
-138 16349 0
-421 -255 0
-421 -417 0
421 255 417 0
-422 -420 0
-422 -421 0
422 420 421 0
-513 138 0
-513 -422 0
513 -138 422 0
-514 -138 0
-514 422 0
514 138 -422 0
-515 -513 0
-515 -514 0
515 513 514 0
137 -16348 0
-137 16348 0
-418 -248 0
-418 -414 0
418 248 414 0
-419 -417 0
-419 -418 0
419 417 418 0
-510 137 0
-510 -419 0
510 -137 419 0
-511 -137 0
-511 419 0
511 137 -419 0
-512 -510 0
-512 -511 0
512 510 511 0
136 -16347 0
-136 16347 0
-415 -241 0
-415 -411 0
415 241 411 0
-416 -414 0
-416 -415 0
416 414 415 0
-507 136 0
-507 -416 0
507 -136 416 0
-508 -136 0
-508 416 0
508 136 -416 0
-509 -507 0
-509 -508 0
509 507 508 0
135 -16346 0
-135 16346 0
-412 -234 0
-412 -408 0
412 234 408 0
-413 -411 0
-413 -412 0
413 411 412 0
-504 135 0
-504 -413 0
504 -135 413 0
-505 -135 0
-505 413 0
505 135 -413 0
-506 -504 0
-506 -505 0
506 504 505 0
134 -16345 0
-134 16345 0
-409 -227 0
-409 -405 0
409 227 405 0
-410 -408 0
-410 -409 0
410 408 409 0
-501 134 0
-501 -410 0
501 -134 410 0
-502 -134 0
-502 410 0
502 134 -410 0
-503 -501 0
-503 -502 0
503 501 502 0
133 -16344 0
-133 16344 0
-406 -220 0
-406 -402 0
406 220 402 0
-407 -405 0
-407 -406 0
407 405 406 0
-498 133 0
-498 -407 0
498 -133 407 0
-499 -133 0
-499 407 0
499 133 -407 0
-500 -498 0
-500 -499 0
500 498 499 0
132 -16343 0
-132 16343 0
-403 -213 0
-403 -399 0
403 213 399 0
-404 -402 0
-404 -403 0
404 402 403 0
-495 132 0
-495 -404 0
495 -132 404 0
-496 -132 0
-496 404 0
496 132 -404 0
-497 -495 0
-497 -496 0
497 495 496 0
131 -16342 0
-131 16342 0
-400 -206 0
-400 -396 0
400 206 396 0
-401 -399 0
-401 -400 0
401 399 400 0
-492 131 0
-492 -401 0
492 -131 401 0
-493 -131 0
-493 401 0
493 131 -401 0
-494 -492 0
-494 -493 0
494 492 493 0
129 -16340 0
-129 16340 0
-394 -2 0
-394 -193 0
394 2 193 0
-395 -393 0
-395 -394 0
395 393 394 0
-486 129 0
-486 -395 0
486 -129 395 0
-487 -129 0
-487 395 0
487 129 -395 0
-488 -486 0
-488 -487 0
488 486 487 0
130 -16341 0
-130 16341 0
-397 -199 0
-397 -393 0
397 199 393 0
-398 -396 0
-398 -397 0
398 396 397 0
-489 130 0
-489 -398 0
489 -130 398 0
-490 -130 0
-490 398 0
490 130 -398 0
-491 -489 0
-491 -490 0
491 489 490 0
-582 488 0
-582 491 0
582 -488 -491 0
-583 494 0
-583 582 0
583 -494 -582 0
-584 497 0
-584 583 0
584 -497 -583 0
-585 500 0
-585 584 0
585 -500 -584 0
-586 503 0
-586 585 0
586 -503 -585 0
-587 506 0
-587 586 0
587 -506 -586 0
-588 509 0
-588 587 0
588 -509 -587 0
-589 512 0
-589 588 0
589 -512 -588 0
-590 515 0
-590 589 0
590 -515 -589 0
-591 518 0
-591 590 0
591 -518 -590 0
-592 521 0
-592 591 0
592 -521 -591 0
-593 524 0
-593 592 0
593 -524 -592 0
-594 527 0
-594 593 0
594 -527 -593 0
-595 530 0
-595 594 0
595 -530 -594 0
-596 533 0
-596 595 0
596 -533 -595 0
-597 536 0
-597 596 0
597 -536 -596 0
-598 539 0
-598 597 0
598 -539 -597 0
-599 542 0
-599 598 0
599 -542 -598 0
-600 545 0
-600 599 0
600 -545 -599 0
-601 548 0
-601 600 0
601 -548 -600 0
-602 551 0
-602 601 0
602 -551 -601 0
-603 554 0
-603 602 0
603 -554 -602 0
-604 557 0
-604 603 0
604 -557 -603 0
-605 560 0
-605 604 0
605 -560 -604 0
-606 563 0
-606 605 0
606 -563 -605 0
-607 566 0
-607 606 0
607 -566 -606 0
-608 569 0
-608 607 0
608 -569 -607 0
-609 572 0
-609 608 0
609 -572 -608 0
-610 575 0
-610 609 0
610 -575 -609 0
-611 578 0
-611 610 0
611 -578 -610 0
-612 581 0
-612 611 0
612 -581 -611 0
-613 -161 0
-613 612 0
613 161 -612 0
-614 -162 0
-614 613 0
614 162 -613 0
-615 -163 0
-615 614 0
615 163 -614 0
-616 -164 0
-616 615 0
616 164 -615 0
-617 -165 0
-617 616 0
617 165 -616 0
-618 -166 0
-618 617 0
618 166 -617 0
-619 -167 0
-619 618 0
619 167 -618 0
-620 -168 0
-620 619 0
620 168 -619 0
-621 -169 0
-621 620 0
621 169 -620 0
-622 -170 0
-622 621 0
622 170 -621 0
-623 -171 0
-623 622 0
623 171 -622 0
-624 -172 0
-624 623 0
624 172 -623 0
-625 -173 0
-625 624 0
625 173 -624 0
-626 -174 0
-626 625 0
626 174 -625 0
-627 -175 0
-627 626 0
627 175 -626 0
-628 -176 0
-628 627 0
628 176 -627 0
-629 -177 0
-629 628 0
629 177 -628 0
-630 -178 0
-630 629 0
630 178 -629 0
-631 -179 0
-631 630 0
631 179 -630 0
-632 -180 0
-632 631 0
632 180 -631 0
-633 -181 0
-633 632 0
633 181 -632 0
-634 -182 0
-634 633 0
634 182 -633 0
-635 -183 0
-635 634 0
635 183 -634 0
-636 -184 0
-636 635 0
636 184 -635 0
-637 -185 0
-637 636 0
637 185 -636 0
-638 -186 0
-638 637 0
638 186 -637 0
-639 -187 0
-639 638 0
639 187 -638 0
-640 -188 0
-640 639 0
640 188 -639 0
-641 -189 0
-641 640 0
641 189 -640 0
-642 -190 0
-642 641 0
642 190 -641 0
-643 -191 0
-643 642 0
643 191 -642 0
-644 -192 0
-644 643 0
644 192 -643 0
-645 2 0
-645 -644 0
645 -2 644 0
-646 128 0
-646 -645 0
646 -128 645 0
-731 -31 0
-731 157 0
731 31 -157 0
-732 31 0
-732 -157 0
732 -31 157 0
-733 -731 0
-733 -732 0
733 731 732 0
-728 -30 0
-728 156 0
728 30 -156 0
-729 30 0
-729 -156 0
729 -30 156 0
-730 -728 0
-730 -729 0
730 728 729 0
-725 -29 0
-725 155 0
725 29 -155 0
-726 29 0
-726 -155 0
726 -29 155 0
-727 -725 0
-727 -726 0
727 725 726 0
-722 -28 0
-722 154 0
722 28 -154 0
-723 28 0
-723 -154 0
723 -28 154 0
-724 -722 0
-724 -723 0
724 722 723 0
-719 -27 0
-719 153 0
719 27 -153 0
-720 27 0
-720 -153 0
720 -27 153 0
-721 -719 0
-721 -720 0
721 719 720 0
-716 -26 0
-716 152 0
716 26 -152 0
-717 26 0
-717 -152 0
717 -26 152 0
-718 -716 0
-718 -717 0
718 716 717 0
-713 -25 0
-713 151 0
713 25 -151 0
-714 25 0
-714 -151 0
714 -25 151 0
-715 -713 0
-715 -714 0
715 713 714 0
-710 -24 0
-710 150 0
710 24 -150 0
-711 24 0
-711 -150 0
711 -24 150 0
-712 -710 0
-712 -711 0
712 710 711 0
-707 -23 0
-707 149 0
707 23 -149 0
-708 23 0
-708 -149 0
708 -23 149 0
-709 -707 0
-709 -708 0
709 707 708 0
-704 -22 0
-704 148 0
704 22 -148 0
-705 22 0
-705 -148 0
705 -22 148 0
-706 -704 0
-706 -705 0
706 704 705 0
-701 -21 0
-701 147 0
701 21 -147 0
-702 21 0
-702 -147 0
702 -21 147 0
-703 -701 0
-703 -702 0
703 701 702 0
-698 -20 0
-698 146 0
698 20 -146 0
-699 20 0
-699 -146 0
699 -20 146 0
-700 -698 0
-700 -699 0
700 698 699 0
-695 -19 0
-695 145 0
695 19 -145 0
-696 19 0
-696 -145 0
696 -19 145 0
-697 -695 0
-697 -696 0
697 695 696 0
-692 -18 0
-692 144 0
692 18 -144 0
-693 18 0
-693 -144 0
693 -18 144 0
-694 -692 0
-694 -693 0
694 692 693 0
-689 -17 0
-689 143 0
689 17 -143 0
-690 17 0
-690 -143 0
690 -17 143 0
-691 -689 0
-691 -690 0
691 689 690 0
-686 -16 0
-686 142 0
686 16 -142 0
-687 16 0
-687 -142 0
687 -16 142 0
-688 -686 0
-688 -687 0
688 686 687 0
-683 -15 0
-683 141 0
683 15 -141 0
-684 15 0
-684 -141 0
684 -15 141 0
-685 -683 0
-685 -684 0
685 683 684 0
-680 -14 0
-680 140 0
680 14 -140 0
-681 14 0
-681 -140 0
681 -14 140 0
-682 -680 0
-682 -681 0
682 680 681 0
-677 -13 0
-677 139 0
677 13 -139 0
-678 13 0
-678 -139 0
678 -13 139 0
-679 -677 0
-679 -678 0
679 677 678 0
-674 -12 0
-674 138 0
674 12 -138 0
-675 12 0
-675 -138 0
675 -12 138 0
-676 -674 0
-676 -675 0
676 674 675 0
-671 -11 0
-671 137 0
671 11 -137 0
-672 11 0
-672 -137 0
672 -11 137 0
-673 -671 0
-673 -672 0
673 671 672 0
-668 -10 0
-668 136 0
668 10 -136 0
-669 10 0
-669 -136 0
669 -10 136 0
-670 -668 0
-670 -669 0
670 668 669 0
-665 -9 0
-665 135 0
665 9 -135 0
-666 9 0
-666 -135 0
666 -9 135 0
-667 -665 0
-667 -666 0
667 665 666 0
-662 -8 0
-662 134 0
662 8 -134 0
-663 8 0
-663 -134 0
663 -8 134 0
-664 -662 0
-664 -663 0
664 662 663 0
-659 -7 0
-659 133 0
659 7 -133 0
-660 7 0
-660 -133 0
660 -7 133 0
-661 -659 0
-661 -660 0
661 659 660 0
-656 -6 0
-656 132 0
656 6 -132 0
-657 6 0
-657 -132 0
657 -6 132 0
-658 -656 0
-658 -657 0
658 656 657 0
-653 -5 0
-653 131 0
653 5 -131 0
-654 5 0
-654 -131 0
654 -5 131 0
-655 -653 0
-655 -654 0
655 653 654 0
-647 -3 0
-647 129 0
647 3 -129 0
-648 3 0
-648 -129 0
648 -3 129 0
-649 -647 0
-649 -648 0
649 647 648 0
-650 -4 0
-650 130 0
650 4 -130 0
-651 4 0
-651 -130 0
651 -4 130 0
-652 -650 0
-652 -651 0
652 650 651 0
-734 649 0
-734 652 0
734 -649 -652 0
-735 655 0
-735 734 0
735 -655 -734 0
-736 658 0
-736 735 0
736 -658 -735 0
-737 661 0
-737 736 0
737 -661 -736 0
-738 664 0
-738 737 0
738 -664 -737 0
-739 667 0
-739 738 0
739 -667 -738 0
-740 670 0
-740 739 0
740 -670 -739 0
-741 673 0
-741 740 0
741 -673 -740 0
-742 676 0
-742 741 0
742 -676 -741 0
-743 679 0
-743 742 0
743 -679 -742 0
-744 682 0
-744 743 0
744 -682 -743 0
-745 685 0
-745 744 0
745 -685 -744 0
-746 688 0
-746 745 0
746 -688 -745 0
-747 691 0
-747 746 0
747 -691 -746 0
-748 694 0
-748 747 0
748 -694 -747 0
-749 697 0
-749 748 0
749 -697 -748 0
-750 700 0
-750 749 0
750 -700 -749 0
-751 703 0
-751 750 0
751 -703 -750 0
-752 706 0
-752 751 0
752 -706 -751 0
-753 709 0
-753 752 0
753 -709 -752 0
-754 712 0
-754 753 0
754 -712 -753 0
-755 715 0
-755 754 0
755 -715 -754 0
-756 718 0
-756 755 0
756 -718 -755 0
-757 721 0
-757 756 0
757 -721 -756 0
-758 724 0
-758 757 0
758 -724 -757 0
-759 727 0
-759 758 0
759 -727 -758 0
-760 730 0
-760 759 0
760 -730 -759 0
-761 733 0
-761 760 0
761 -733 -760 0
-762 -158 0
-762 761 0
762 158 -761 0
-763 -159 0
-763 762 0
763 159 -762 0
-764 -160 0
-764 763 0
764 160 -763 0
-765 -161 0
-765 764 0
765 161 -764 0
-766 -162 0
-766 765 0
766 162 -765 0
-767 -163 0
-767 766 0
767 163 -766 0
-768 -164 0
-768 767 0
768 164 -767 0
-769 -165 0
-769 768 0
769 165 -768 0
-770 -166 0
-770 769 0
770 166 -769 0
-771 -167 0
-771 770 0
771 167 -770 0
-772 -168 0
-772 771 0
772 168 -771 0
-773 -169 0
-773 772 0
773 169 -772 0
-774 -170 0
-774 773 0
774 170 -773 0
-775 -171 0
-775 774 0
775 171 -774 0
-776 -172 0
-776 775 0
776 172 -775 0
-777 -173 0
-777 776 0
777 173 -776 0
-778 -174 0
-778 777 0
778 174 -777 0
-779 -175 0
-779 778 0
779 175 -778 0
-780 -176 0
-780 779 0
780 176 -779 0
-781 -177 0
-781 780 0
781 177 -780 0
-782 -178 0
-782 781 0
782 178 -781 0
-783 -179 0
-783 782 0
783 179 -782 0
-784 -180 0
-784 783 0
784 180 -783 0
-785 -181 0
-785 784 0
785 181 -784 0
-786 -182 0
-786 785 0
786 182 -785 0
-787 -183 0
-787 786 0
787 183 -786 0
-788 -184 0
-788 787 0
788 184 -787 0
-789 -185 0
-789 788 0
789 185 -788 0
-790 -186 0
-790 789 0
790 186 -789 0
-791 -187 0
-791 790 0
791 187 -790 0
-792 -188 0
-792 791 0
792 188 -791 0
-793 -189 0
-793 792 0
793 189 -792 0
-794 -190 0
-794 793 0
794 190 -793 0
-795 -191 0
-795 794 0
795 191 -794 0
-796 -192 0
-796 795 0
796 192 -795 0
-797 -2 0
-797 -796 0
797 2 796 0
-798 646 0
-798 -797 0
798 -646 797 0
799 -16404 0
-799 16404 0
-800 -395 0
-800 799 0
800 395 -799 0
-801 395 0
-801 -799 0
801 -395 799 0
-802 -800 0
-802 -801 0
802 800 801 0
-803 2 0
-803 -802 0
803 -2 802 0
-804 798 0
-804 -803 0
804 -798 803 0
-805 -3 0
-805 799 0
805 3 -799 0
-806 3 0
-806 -799 0
806 -3 799 0
-807 -805 0
-807 -806 0
807 805 806 0
-808 -2 0
-808 -807 0
808 2 807 0
-809 804 0
-809 -808 0
809 -804 808 0
819 -16414 0
-819 16414 0
818 -16413 0
-818 16413 0
817 -16412 0
-817 16412 0
816 -16411 0
-816 16411 0
815 -16410 0
-815 16410 0
814 -16409 0
-814 16409 0
813 -16408 0
-813 16408 0
812 -16407 0
-812 16407 0
810 -16405 0
-810 16405 0
811 -16406 0
-811 16406 0
-820 810 0
-820 -811 0
820 -810 811 0
-821 -812 0
-821 820 0
821 812 -820 0
-822 -813 0
-822 821 0
822 813 -821 0
-823 -814 0
-823 822 0
823 814 -822 0
-824 -815 0
-824 823 0
824 815 -823 0
-825 -816 0
-825 824 0
825 816 -824 0
-826 -817 0
-826 825 0
826 817 -825 0
-827 -818 0
-827 826 0
827 818 -826 0
-828 -819 0
-828 827 0
828 819 -827 0
-829 2 0
-829 -828 0
829 -2 828 0
-830 809 0
-830 -829 0
830 -809 829 0
-831 -810 0
-831 -811 0
831 810 811 0
-832 -812 0
-832 831 0
832 812 -831 0
-833 -813 0
-833 832 0
833 813 -832 0
-834 -814 0
-834 833 0
834 814 -833 0
-835 -815 0
-835 834 0
835 815 -834 0
-836 -816 0
-836 835 0
836 816 -835 0
-837 -817 0
-837 836 0
837 817 -836 0
-838 -818 0
-838 837 0
838 818 -837 0
-839 -819 0
-839 838 0
839 819 -838 0
-840 -2 0
-840 -839 0
840 2 839 0
-841 830 0
-841 -840 0
841 -830 840 0
851 -16424 0
-851 16424 0
850 -16423 0
-850 16423 0
849 -16422 0
-849 16422 0
848 -16421 0
-848 16421 0
847 -16420 0
-847 16420 0
846 -16419 0
-846 16419 0
845 -16418 0
-845 16418 0
844 -16417 0
-844 16417 0
842 -16415 0
-842 16415 0
843 -16416 0
-843 16416 0
-852 842 0
-852 -843 0
852 -842 843 0
-853 -844 0
-853 852 0
853 844 -852 0
-854 -845 0
-854 853 0
854 845 -853 0
-855 -846 0
-855 854 0
855 846 -854 0
-856 -847 0
-856 855 0
856 847 -855 0
-857 -848 0
-857 856 0
857 848 -856 0
-858 -849 0
-858 857 0
858 849 -857 0
-859 -850 0
-859 858 0
859 850 -858 0
-860 -851 0
-860 859 0
860 851 -859 0
-861 799 0
-861 -860 0
861 -799 860 0
-862 841 0
-862 -861 0
862 -841 861 0
-863 -842 0
-863 -843 0
863 842 843 0
-864 -844 0
-864 863 0
864 844 -863 0
-865 -845 0
-865 864 0
865 845 -864 0
-866 -846 0
-866 865 0
866 846 -865 0
-867 -847 0
-867 866 0
867 847 -866 0
-868 -848 0
-868 867 0
868 848 -867 0
-869 -849 0
-869 868 0
869 849 -868 0
-870 -850 0
-870 869 0
870 850 -869 0
-871 -851 0
-871 870 0
871 851 -870 0
-872 -799 0
-872 -871 0
872 799 871 0
-873 862 0
-873 -872 0
873 -862 872 0
936 -16487 0
-936 16487 0
935 -16486 0
-935 16486 0
934 -16485 0
-934 16485 0
933 -16484 0
-933 16484 0
932 -16483 0
-932 16483 0
931 -16482 0
-931 16482 0
930 -16481 0
-930 16481 0
929 -16480 0
-929 16480 0
928 -16479 0
-928 16479 0
927 -16478 0
-927 16478 0
926 -16477 0
-926 16477 0
925 -16476 0
-925 16476 0
924 -16475 0
-924 16475 0
923 -16474 0
-923 16474 0
922 -16473 0
-922 16473 0
921 -16472 0
-921 16472 0
920 -16471 0
-920 16471 0
919 -16470 0
-919 16470 0
918 -16469 0
-918 16469 0
917 -16468 0
-917 16468 0
916 -16467 0
-916 16467 0
915 -16466 0
-915 16466 0
914 -16465 0
-914 16465 0
913 -16464 0
-913 16464 0
912 -16463 0
-912 16463 0
911 -16462 0
-911 16462 0
910 -16461 0
-910 16461 0
909 -16460 0
-909 16460 0
908 -16459 0
-908 16459 0
907 -16458 0
-907 16458 0
906 -16457 0
-906 16457 0
905 -16456 0
-905 16456 0
904 -16455 0
-904 16455 0
-1027 -483 0
-1027 904 0
1027 483 -904 0
-1028 483 0
-1028 -904 0
1028 -483 904 0
-1029 -1027 0
-1029 -1028 0
1029 1027 1028 0
903 -16454 0
-903 16454 0
-1024 -485 0
-1024 903 0
1024 485 -903 0
-1025 485 0
-1025 -903 0
1025 -485 903 0
-1026 -1024 0
-1026 -1025 0
1026 1024 1025 0
902 -16453 0
-902 16453 0
-1021 -482 0
-1021 902 0
1021 482 -902 0
-1022 482 0
-1022 -902 0
1022 -482 902 0
-1023 -1021 0
-1023 -1022 0
1023 1021 1022 0
901 -16452 0
-901 16452 0
-1018 -479 0
-1018 901 0
1018 479 -901 0
-1019 479 0
-1019 -901 0
1019 -479 901 0
-1020 -1018 0
-1020 -1019 0
1020 1018 1019 0
900 -16451 0
-900 16451 0
-1015 -476 0
-1015 900 0
1015 476 -900 0
-1016 476 0
-1016 -900 0
1016 -476 900 0
-1017 -1015 0
-1017 -1016 0
1017 1015 1016 0
899 -16450 0
-899 16450 0
-1012 -473 0
-1012 899 0
1012 473 -899 0
-1013 473 0
-1013 -899 0
1013 -473 899 0
-1014 -1012 0
-1014 -1013 0
1014 1012 1013 0
898 -16449 0
-898 16449 0
-1009 -470 0
-1009 898 0
1009 470 -898 0
-1010 470 0
-1010 -898 0
1010 -470 898 0
-1011 -1009 0
-1011 -1010 0
1011 1009 1010 0
897 -16448 0
-897 16448 0
-1006 -467 0
-1006 897 0
1006 467 -897 0
-1007 467 0
-1007 -897 0
1007 -467 897 0
-1008 -1006 0
-1008 -1007 0
1008 1006 1007 0
896 -16447 0
-896 16447 0
-1003 -464 0
-1003 896 0
1003 464 -896 0
-1004 464 0
-1004 -896 0
1004 -464 896 0
-1005 -1003 0
-1005 -1004 0
1005 1003 1004 0
895 -16446 0
-895 16446 0
-1000 -461 0
-1000 895 0
1000 461 -895 0
-1001 461 0
-1001 -895 0
1001 -461 895 0
-1002 -1000 0
-1002 -1001 0
1002 1000 1001 0
894 -16445 0
-894 16445 0
-997 -458 0
-997 894 0
997 458 -894 0
-998 458 0
-998 -894 0
998 -458 894 0
-999 -997 0
-999 -998 0
999 997 998 0
893 -16444 0
-893 16444 0
-994 -455 0
-994 893 0
994 455 -893 0
-995 455 0
-995 -893 0
995 -455 893 0
-996 -994 0
-996 -995 0
996 994 995 0
892 -16443 0
-892 16443 0
-991 -452 0
-991 892 0
991 452 -892 0
-992 452 0
-992 -892 0
992 -452 892 0
-993 -991 0
-993 -992 0
993 991 992 0
891 -16442 0
-891 16442 0
-988 -449 0
-988 891 0
988 449 -891 0
-989 449 0
-989 -891 0
989 -449 891 0
-990 -988 0
-990 -989 0
990 988 989 0
890 -16441 0
-890 16441 0
-985 -446 0
-985 890 0
985 446 -890 0
-986 446 0
-986 -890 0
986 -446 890 0
-987 -985 0
-987 -986 0
987 985 986 0
889 -16440 0
-889 16440 0
-982 -443 0
-982 889 0
982 443 -889 0
-983 443 0
-983 -889 0
983 -443 889 0
-984 -982 0
-984 -983 0
984 982 983 0
888 -16439 0
-888 16439 0
-979 -440 0
-979 888 0
979 440 -888 0
-980 440 0
-980 -888 0
980 -440 888 0
-981 -979 0
-981 -980 0
981 979 980 0
887 -16438 0
-887 16438 0
-976 -437 0
-976 887 0
976 437 -887 0
-977 437 0
-977 -887 0
977 -437 887 0
-978 -976 0
-978 -977 0
978 976 977 0
886 -16437 0
-886 16437 0
-973 -434 0
-973 886 0
973 434 -886 0
-974 434 0
-974 -886 0
974 -434 886 0
-975 -973 0
-975 -974 0
975 973 974 0
885 -16436 0
-885 16436 0
-970 -431 0
-970 885 0
970 431 -885 0
-971 431 0
-971 -885 0
971 -431 885 0
-972 -970 0
-972 -971 0
972 970 971 0
884 -16435 0
-884 16435 0
-967 -428 0
-967 884 0
967 428 -884 0
-968 428 0
-968 -884 0
968 -428 884 0
-969 -967 0
-969 -968 0
969 967 968 0
883 -16434 0
-883 16434 0
-964 -425 0
-964 883 0
964 425 -883 0
-965 425 0
-965 -883 0
965 -425 883 0
-966 -964 0
-966 -965 0
966 964 965 0
882 -16433 0
-882 16433 0
-961 -422 0
-961 882 0
961 422 -882 0
-962 422 0
-962 -882 0
962 -422 882 0
-963 -961 0
-963 -962 0
963 961 962 0
881 -16432 0
-881 16432 0
-958 -419 0
-958 881 0
958 419 -881 0
-959 419 0
-959 -881 0
959 -419 881 0
-960 -958 0
-960 -959 0
960 958 959 0
880 -16431 0
-880 16431 0
-955 -416 0
-955 880 0
955 416 -880 0
-956 416 0
-956 -880 0
956 -416 880 0
-957 -955 0
-957 -956 0
957 955 956 0
879 -16430 0
-879 16430 0
-952 -413 0
-952 879 0
952 413 -879 0
-953 413 0
-953 -879 0
953 -413 879 0
-954 -952 0
-954 -953 0
954 952 953 0
878 -16429 0
-878 16429 0
-949 -410 0
-949 878 0
949 410 -878 0
-950 410 0
-950 -878 0
950 -410 878 0
-951 -949 0
-951 -950 0
951 949 950 0
877 -16428 0
-877 16428 0
-946 -407 0
-946 877 0
946 407 -877 0
-947 407 0
-947 -877 0
947 -407 877 0
-948 -946 0
-948 -947 0
948 946 947 0
876 -16427 0
-876 16427 0
-943 -404 0
-943 876 0
943 404 -876 0
-944 404 0
-944 -876 0
944 -404 876 0
-945 -943 0
-945 -944 0
945 943 944 0
874 -16425 0
-874 16425 0
-937 -398 0
-937 874 0
937 398 -874 0
-938 398 0
-938 -874 0
938 -398 874 0
-939 -937 0
-939 -938 0
939 937 938 0
875 -16426 0
-875 16426 0
-940 -401 0
-940 875 0
940 401 -875 0
-941 401 0
-941 -875 0
941 -401 875 0
-942 -940 0
-942 -941 0
942 940 941 0
-1030 939 0
-1030 942 0
1030 -939 -942 0
-1031 945 0
-1031 1030 0
1031 -945 -1030 0
-1032 948 0
-1032 1031 0
1032 -948 -1031 0
-1033 951 0
-1033 1032 0
1033 -951 -1032 0
-1034 954 0
-1034 1033 0
1034 -954 -1033 0
-1035 957 0
-1035 1034 0
1035 -957 -1034 0
-1036 960 0
-1036 1035 0
1036 -960 -1035 0
-1037 963 0
-1037 1036 0
1037 -963 -1036 0
-1038 966 0
-1038 1037 0
1038 -966 -1037 0
-1039 969 0
-1039 1038 0
1039 -969 -1038 0
-1040 972 0
-1040 1039 0
1040 -972 -1039 0
-1041 975 0
-1041 1040 0
1041 -975 -1040 0
-1042 978 0
-1042 1041 0
1042 -978 -1041 0
-1043 981 0
-1043 1042 0
1043 -981 -1042 0
-1044 984 0
-1044 1043 0
1044 -984 -1043 0
-1045 987 0
-1045 1044 0
1045 -987 -1044 0
-1046 990 0
-1046 1045 0
1046 -990 -1045 0
-1047 993 0
-1047 1046 0
1047 -993 -1046 0
-1048 996 0
-1048 1047 0
1048 -996 -1047 0
-1049 999 0
-1049 1048 0
1049 -999 -1048 0
-1050 1002 0
-1050 1049 0
1050 -1002 -1049 0
-1051 1005 0
-1051 1050 0
1051 -1005 -1050 0
-1052 1008 0
-1052 1051 0
1052 -1008 -1051 0
-1053 1011 0
-1053 1052 0
1053 -1011 -1052 0
-1054 1014 0
-1054 1053 0
1054 -1014 -1053 0
-1055 1017 0
-1055 1054 0
1055 -1017 -1054 0
-1056 1020 0
-1056 1055 0
1056 -1020 -1055 0
-1057 1023 0
-1057 1056 0
1057 -1023 -1056 0
-1058 1026 0
-1058 1057 0
1058 -1026 -1057 0
-1059 1029 0
-1059 1058 0
1059 -1029 -1058 0
-1060 -905 0
-1060 1059 0
1060 905 -1059 0
-1061 -906 0
-1061 1060 0
1061 906 -1060 0
-1062 -907 0
-1062 1061 0
1062 907 -1061 0
-1063 -908 0
-1063 1062 0
1063 908 -1062 0
-1064 -909 0
-1064 1063 0
1064 909 -1063 0
-1065 -910 0
-1065 1064 0
1065 910 -1064 0
-1066 -911 0
-1066 1065 0
1066 911 -1065 0
-1067 -912 0
-1067 1066 0
1067 912 -1066 0
-1068 -913 0
-1068 1067 0
1068 913 -1067 0
-1069 -914 0
-1069 1068 0
1069 914 -1068 0
-1070 -915 0
-1070 1069 0
1070 915 -1069 0
-1071 -916 0
-1071 1070 0
1071 916 -1070 0
-1072 -917 0
-1072 1071 0
1072 917 -1071 0
-1073 -918 0
-1073 1072 0
1073 918 -1072 0
-1074 -919 0
-1074 1073 0
1074 919 -1073 0
-1075 -920 0
-1075 1074 0
1075 920 -1074 0
-1076 -921 0
-1076 1075 0
1076 921 -1075 0
-1077 -922 0
-1077 1076 0
1077 922 -1076 0
-1078 -923 0
-1078 1077 0
1078 923 -1077 0
-1079 -924 0
-1079 1078 0
1079 924 -1078 0
-1080 -925 0
-1080 1079 0
1080 925 -1079 0
-1081 -926 0
-1081 1080 0
1081 926 -1080 0
-1082 -927 0
-1082 1081 0
1082 927 -1081 0
-1083 -928 0
-1083 1082 0
1083 928 -1082 0
-1084 -929 0
-1084 1083 0
1084 929 -1083 0
-1085 -930 0
-1085 1084 0
1085 930 -1084 0
-1086 -931 0
-1086 1085 0
1086 931 -1085 0
-1087 -932 0
-1087 1086 0
1087 932 -1086 0
-1088 -933 0
-1088 1087 0
1088 933 -1087 0
-1089 -934 0
-1089 1088 0
1089 934 -1088 0
-1090 -935 0
-1090 1089 0
1090 935 -1089 0
-1091 -936 0
-1091 1090 0
1091 936 -1090 0
-1092 2 0
-1092 -1091 0
1092 -2 1091 0
-1093 873 0
-1093 -1092 0
1093 -873 1092 0
-1175 -31 0
-1175 901 0
1175 31 -901 0
-1176 31 0
-1176 -901 0
1176 -31 901 0
-1177 -1175 0
-1177 -1176 0
1177 1175 1176 0
-1172 -30 0
-1172 900 0
1172 30 -900 0
-1173 30 0
-1173 -900 0
1173 -30 900 0
-1174 -1172 0
-1174 -1173 0
1174 1172 1173 0
-1169 -29 0
-1169 899 0
1169 29 -899 0
-1170 29 0
-1170 -899 0
1170 -29 899 0
-1171 -1169 0
-1171 -1170 0
1171 1169 1170 0
-1166 -28 0
-1166 898 0
1166 28 -898 0
-1167 28 0
-1167 -898 0
1167 -28 898 0
-1168 -1166 0
-1168 -1167 0
1168 1166 1167 0
-1163 -27 0
-1163 897 0
1163 27 -897 0
-1164 27 0
-1164 -897 0
1164 -27 897 0
-1165 -1163 0
-1165 -1164 0
1165 1163 1164 0
-1160 -26 0
-1160 896 0
1160 26 -896 0
-1161 26 0
-1161 -896 0
1161 -26 896 0
-1162 -1160 0
-1162 -1161 0
1162 1160 1161 0
-1157 -25 0
-1157 895 0
1157 25 -895 0
-1158 25 0
-1158 -895 0
1158 -25 895 0
-1159 -1157 0
-1159 -1158 0
1159 1157 1158 0
-1154 -24 0
-1154 894 0
1154 24 -894 0
-1155 24 0
-1155 -894 0
1155 -24 894 0
-1156 -1154 0
-1156 -1155 0
1156 1154 1155 0
-1151 -23 0
-1151 893 0
1151 23 -893 0
-1152 23 0
-1152 -893 0
1152 -23 893 0
-1153 -1151 0
-1153 -1152 0
1153 1151 1152 0
-1148 -22 0
-1148 892 0
1148 22 -892 0
-1149 22 0
-1149 -892 0
1149 -22 892 0
-1150 -1148 0
-1150 -1149 0
1150 1148 1149 0
-1145 -21 0
-1145 891 0
1145 21 -891 0
-1146 21 0
-1146 -891 0
1146 -21 891 0
-1147 -1145 0
-1147 -1146 0
1147 1145 1146 0
-1142 -20 0
-1142 890 0
1142 20 -890 0
-1143 20 0
-1143 -890 0
1143 -20 890 0
-1144 -1142 0
-1144 -1143 0
1144 1142 1143 0
-1139 -19 0
-1139 889 0
1139 19 -889 0
-1140 19 0
-1140 -889 0
1140 -19 889 0
-1141 -1139 0
-1141 -1140 0
1141 1139 1140 0
-1136 -18 0
-1136 888 0
1136 18 -888 0
-1137 18 0
-1137 -888 0
1137 -18 888 0
-1138 -1136 0
-1138 -1137 0
1138 1136 1137 0
-1133 -17 0
-1133 887 0
1133 17 -887 0
-1134 17 0
-1134 -887 0
1134 -17 887 0
-1135 -1133 0
-1135 -1134 0
1135 1133 1134 0
-1130 -16 0
-1130 886 0
1130 16 -886 0
-1131 16 0
-1131 -886 0
1131 -16 886 0
-1132 -1130 0
-1132 -1131 0
1132 1130 1131 0
-1127 -15 0
-1127 885 0
1127 15 -885 0
-1128 15 0
-1128 -885 0
1128 -15 885 0
-1129 -1127 0
-1129 -1128 0
1129 1127 1128 0
-1124 -14 0
-1124 884 0
1124 14 -884 0
-1125 14 0
-1125 -884 0
1125 -14 884 0
-1126 -1124 0
-1126 -1125 0
1126 1124 1125 0
-1121 -13 0
-1121 883 0
1121 13 -883 0
-1122 13 0
-1122 -883 0
1122 -13 883 0
-1123 -1121 0
-1123 -1122 0
1123 1121 1122 0
-1118 -12 0
-1118 882 0
1118 12 -882 0
-1119 12 0
-1119 -882 0
1119 -12 882 0
-1120 -1118 0
-1120 -1119 0
1120 1118 1119 0
-1115 -11 0
-1115 881 0
1115 11 -881 0
-1116 11 0
-1116 -881 0
1116 -11 881 0
-1117 -1115 0
-1117 -1116 0
1117 1115 1116 0
-1112 -10 0
-1112 880 0
1112 10 -880 0
-1113 10 0
-1113 -880 0
1113 -10 880 0
-1114 -1112 0
-1114 -1113 0
1114 1112 1113 0
-1109 -9 0
-1109 879 0
1109 9 -879 0
-1110 9 0
-1110 -879 0
1110 -9 879 0
-1111 -1109 0
-1111 -1110 0
1111 1109 1110 0
-1106 -8 0
-1106 878 0
1106 8 -878 0
-1107 8 0
-1107 -878 0
1107 -8 878 0
-1108 -1106 0
-1108 -1107 0
1108 1106 1107 0
-1103 -7 0
-1103 877 0
1103 7 -877 0
-1104 7 0
-1104 -877 0
1104 -7 877 0
-1105 -1103 0
-1105 -1104 0
1105 1103 1104 0
-1100 -6 0
-1100 876 0
1100 6 -876 0
-1101 6 0
-1101 -876 0
1101 -6 876 0
-1102 -1100 0
-1102 -1101 0
1102 1100 1101 0
-1094 -4 0
-1094 874 0
1094 4 -874 0
-1095 4 0
-1095 -874 0
1095 -4 874 0
-1096 -1094 0
-1096 -1095 0
1096 1094 1095 0
-1097 -5 0
-1097 875 0
1097 5 -875 0
-1098 5 0
-1098 -875 0
1098 -5 875 0
-1099 -1097 0
-1099 -1098 0
1099 1097 1098 0
-1178 1096 0
-1178 1099 0
1178 -1096 -1099 0
-1179 1102 0
-1179 1178 0
1179 -1102 -1178 0
-1180 1105 0
-1180 1179 0
1180 -1105 -1179 0
-1181 1108 0
-1181 1180 0
1181 -1108 -1180 0
-1182 1111 0
-1182 1181 0
1182 -1111 -1181 0
-1183 1114 0
-1183 1182 0
1183 -1114 -1182 0
-1184 1117 0
-1184 1183 0
1184 -1117 -1183 0
-1185 1120 0
-1185 1184 0
1185 -1120 -1184 0
-1186 1123 0
-1186 1185 0
1186 -1123 -1185 0
-1187 1126 0
-1187 1186 0
1187 -1126 -1186 0
-1188 1129 0
-1188 1187 0
1188 -1129 -1187 0
-1189 1132 0
-1189 1188 0
1189 -1132 -1188 0
-1190 1135 0
-1190 1189 0
1190 -1135 -1189 0
-1191 1138 0
-1191 1190 0
1191 -1138 -1190 0
-1192 1141 0
-1192 1191 0
1192 -1141 -1191 0
-1193 1144 0
-1193 1192 0
1193 -1144 -1192 0
-1194 1147 0
-1194 1193 0
1194 -1147 -1193 0
-1195 1150 0
-1195 1194 0
1195 -1150 -1194 0
-1196 1153 0
-1196 1195 0
1196 -1153 -1195 0
-1197 1156 0
-1197 1196 0
1197 -1156 -1196 0
-1198 1159 0
-1198 1197 0
1198 -1159 -1197 0
-1199 1162 0
-1199 1198 0
1199 -1162 -1198 0
-1200 1165 0
-1200 1199 0
1200 -1165 -1199 0
-1201 1168 0
-1201 1200 0
1201 -1168 -1200 0
-1202 1171 0
-1202 1201 0
1202 -1171 -1201 0
-1203 1174 0
-1203 1202 0
1203 -1174 -1202 0
-1204 1177 0
-1204 1203 0
1204 -1177 -1203 0
-1205 -902 0
-1205 1204 0
1205 902 -1204 0
-1206 -903 0
-1206 1205 0
1206 903 -1205 0
-1207 -904 0
-1207 1206 0
1207 904 -1206 0
-1208 -905 0
-1208 1207 0
1208 905 -1207 0
-1209 -906 0
-1209 1208 0
1209 906 -1208 0
-1210 -907 0
-1210 1209 0
1210 907 -1209 0
-1211 -908 0
-1211 1210 0
1211 908 -1210 0
-1212 -909 0
-1212 1211 0
1212 909 -1211 0
-1213 -910 0
-1213 1212 0
1213 910 -1212 0
-1214 -911 0
-1214 1213 0
1214 911 -1213 0
-1215 -912 0
-1215 1214 0
1215 912 -1214 0
-1216 -913 0
-1216 1215 0
1216 913 -1215 0
-1217 -914 0
-1217 1216 0
1217 914 -1216 0
-1218 -915 0
-1218 1217 0
1218 915 -1217 0
-1219 -916 0
-1219 1218 0
1219 916 -1218 0
-1220 -917 0
-1220 1219 0
1220 917 -1219 0
-1221 -918 0
-1221 1220 0
1221 918 -1220 0
-1222 -919 0
-1222 1221 0
1222 919 -1221 0
-1223 -920 0
-1223 1222 0
1223 920 -1222 0
-1224 -921 0
-1224 1223 0
1224 921 -1223 0
-1225 -922 0
-1225 1224 0
1225 922 -1224 0
-1226 -923 0
-1226 1225 0
1226 923 -1225 0
-1227 -924 0
-1227 1226 0
1227 924 -1226 0
-1228 -925 0
-1228 1227 0
1228 925 -1227 0
-1229 -926 0
-1229 1228 0
1229 926 -1228 0
-1230 -927 0
-1230 1229 0
1230 927 -1229 0
-1231 -928 0
-1231 1230 0
1231 928 -1230 0
-1232 -929 0
-1232 1231 0
1232 929 -1231 0
-1233 -930 0
-1233 1232 0
1233 930 -1232 0
-1234 -931 0
-1234 1233 0
1234 931 -1233 0
-1235 -932 0
-1235 1234 0
1235 932 -1234 0
-1236 -933 0
-1236 1235 0
1236 933 -1235 0
-1237 -934 0
-1237 1236 0
1237 934 -1236 0
-1238 -935 0
-1238 1237 0
1238 935 -1237 0
-1239 -936 0
-1239 1238 0
1239 936 -1238 0
-1240 -2 0
-1240 -1239 0
1240 2 1239 0
-1241 1093 0
-1241 -1240 0
1241 -1093 1240 0
1305 -16551 0
-1305 16551 0
1304 -16550 0
-1304 16550 0
-1729 190 0
-1729 191 0
1729 -190 -191 0
-1722 189 0
-1722 190 0
1722 -189 -190 0
-1715 188 0
-1715 189 0
1715 -188 -189 0
-1708 187 0
-1708 188 0
1708 -187 -188 0
-1701 186 0
-1701 187 0
1701 -186 -187 0
-1694 185 0
-1694 186 0
1694 -185 -186 0
-1687 184 0
-1687 185 0
1687 -184 -185 0
-1680 183 0
-1680 184 0
1680 -183 -184 0
-1673 182 0
-1673 183 0
1673 -182 -183 0
-1666 181 0
-1666 182 0
1666 -181 -182 0
-1659 180 0
-1659 181 0
1659 -180 -181 0
-1652 179 0
-1652 180 0
1652 -179 -180 0
-1645 178 0
-1645 179 0
1645 -178 -179 0
-1638 177 0
-1638 178 0
1638 -177 -178 0
-1631 176 0
-1631 177 0
1631 -176 -177 0
-1624 175 0
-1624 176 0
1624 -175 -176 0
-1617 174 0
-1617 175 0
1617 -174 -175 0
-1610 173 0
-1610 174 0
1610 -173 -174 0
-1603 172 0
-1603 173 0
1603 -172 -173 0
-1596 171 0
-1596 172 0
1596 -171 -172 0
-1589 170 0
-1589 171 0
1589 -170 -171 0
-1582 169 0
-1582 170 0
1582 -169 -170 0
-1575 168 0
-1575 169 0
1575 -168 -169 0
-1568 167 0
-1568 168 0
1568 -167 -168 0
-1561 166 0
-1561 167 0
1561 -166 -167 0
-1554 165 0
-1554 166 0
1554 -165 -166 0
-1547 164 0
-1547 165 0
1547 -164 -165 0
-1540 163 0
-1540 164 0
1540 -163 -164 0
-1533 162 0
-1533 163 0
1533 -162 -163 0
-1526 161 0
-1526 162 0
1526 -161 -162 0
-1519 160 0
-1519 161 0
1519 -160 -161 0
-1512 159 0
-1512 160 0
1512 -159 -160 0
-1505 158 0
-1505 159 0
1505 -158 -159 0
-1498 157 0
-1498 158 0
1498 -157 -158 0
-1491 156 0
-1491 157 0
1491 -156 -157 0
-1484 155 0
-1484 156 0
1484 -155 -156 0
-1477 154 0
-1477 155 0
1477 -154 -155 0
-1470 153 0
-1470 154 0
1470 -153 -154 0
-1463 152 0
-1463 153 0
1463 -152 -153 0
-1456 151 0
-1456 152 0
1456 -151 -152 0
-1449 150 0
-1449 151 0
1449 -150 -151 0
-1442 149 0
-1442 150 0
1442 -149 -150 0
-1435 148 0
-1435 149 0
1435 -148 -149 0
-1428 147 0
-1428 148 0
1428 -147 -148 0
-1421 146 0
-1421 147 0
1421 -146 -147 0
-1414 145 0
-1414 146 0
1414 -145 -146 0
-1407 144 0
-1407 145 0
1407 -144 -145 0
-1400 143 0
-1400 144 0
1400 -143 -144 0
-1393 142 0
-1393 143 0
1393 -142 -143 0
-1386 141 0
-1386 142 0
1386 -141 -142 0
-1379 140 0
-1379 141 0
1379 -140 -141 0
-1372 139 0
-1372 140 0
1372 -139 -140 0
-1365 138 0
-1365 139 0
1365 -138 -139 0
-1358 137 0
-1358 138 0
1358 -137 -138 0
-1351 136 0
-1351 137 0
1351 -136 -137 0
-1344 135 0
-1344 136 0
1344 -135 -136 0
-1337 134 0
-1337 135 0
1337 -134 -135 0
-1330 133 0
-1330 134 0
1330 -133 -134 0
-1323 132 0
-1323 133 0
1323 -132 -133 0
-1316 131 0
-1316 132 0
1316 -131 -132 0
-1309 130 0
-1309 131 0
1309 -130 -131 0
-1306 129 0
-1306 130 0
1306 -129 -130 0
-1310 -130 0
-1310 -131 0
1310 130 131 0
-1311 -1309 0
-1311 -1310 0
1311 1309 1310 0
-1312 1306 0
-1312 1311 0
1312 -1306 -1311 0
-1315 -1309 0
-1315 -1312 0
1315 1309 1312 0
-1317 -131 0
-1317 -132 0
1317 131 132 0
-1318 -1316 0
-1318 -1317 0
1318 1316 1317 0
-1319 -1315 0
-1319 1318 0
1319 1315 -1318 0
-1322 -1316 0
-1322 -1319 0
1322 1316 1319 0
-1324 -132 0
-1324 -133 0
1324 132 133 0
-1325 -1323 0
-1325 -1324 0
1325 1323 1324 0
-1326 -1322 0
-1326 1325 0
1326 1322 -1325 0
-1329 -1323 0
-1329 -1326 0
1329 1323 1326 0
-1331 -133 0
-1331 -134 0
1331 133 134 0
-1332 -1330 0
-1332 -1331 0
1332 1330 1331 0
-1333 -1329 0
-1333 1332 0
1333 1329 -1332 0
-1336 -1330 0
-1336 -1333 0
1336 1330 1333 0
-1338 -134 0
-1338 -135 0
1338 134 135 0
-1339 -1337 0
-1339 -1338 0
1339 1337 1338 0
-1340 -1336 0
-1340 1339 0
1340 1336 -1339 0
-1343 -1337 0
-1343 -1340 0
1343 1337 1340 0
-1345 -135 0
-1345 -136 0
1345 135 136 0
-1346 -1344 0
-1346 -1345 0
1346 1344 1345 0
-1347 -1343 0
-1347 1346 0
1347 1343 -1346 0
-1350 -1344 0
-1350 -1347 0
1350 1344 1347 0
-1352 -136 0
-1352 -137 0
1352 136 137 0
-1353 -1351 0
-1353 -1352 0
1353 1351 1352 0
-1354 -1350 0
-1354 1353 0
1354 1350 -1353 0
-1357 -1351 0
-1357 -1354 0
1357 1351 1354 0
-1359 -137 0
-1359 -138 0
1359 137 138 0
-1360 -1358 0
-1360 -1359 0
1360 1358 1359 0
-1361 -1357 0
-1361 1360 0
1361 1357 -1360 0
-1364 -1358 0
-1364 -1361 0
1364 1358 1361 0
-1366 -138 0
-1366 -139 0
1366 138 139 0
-1367 -1365 0
-1367 -1366 0
1367 1365 1366 0
-1368 -1364 0
-1368 1367 0
1368 1364 -1367 0
-1371 -1365 0
-1371 -1368 0
1371 1365 1368 0
-1373 -139 0
-1373 -140 0
1373 139 140 0
-1374 -1372 0
-1374 -1373 0
1374 1372 1373 0
-1375 -1371 0
-1375 1374 0
1375 1371 -1374 0
-1378 -1372 0
-1378 -1375 0
1378 1372 1375 0
-1380 -140 0
-1380 -141 0
1380 140 141 0
-1381 -1379 0
-1381 -1380 0
1381 1379 1380 0
-1382 -1378 0
-1382 1381 0
1382 1378 -1381 0
-1385 -1379 0
-1385 -1382 0
1385 1379 1382 0
-1387 -141 0
-1387 -142 0
1387 141 142 0
-1388 -1386 0
-1388 -1387 0
1388 1386 1387 0
-1389 -1385 0
-1389 1388 0
1389 1385 -1388 0
-1392 -1386 0
-1392 -1389 0
1392 1386 1389 0
-1394 -142 0
-1394 -143 0
1394 142 143 0
-1395 -1393 0
-1395 -1394 0
1395 1393 1394 0
-1396 -1392 0
-1396 1395 0
1396 1392 -1395 0
-1399 -1393 0
-1399 -1396 0
1399 1393 1396 0
-1401 -143 0
-1401 -144 0
1401 143 144 0
-1402 -1400 0
-1402 -1401 0
1402 1400 1401 0
-1403 -1399 0
-1403 1402 0
1403 1399 -1402 0
-1406 -1400 0
-1406 -1403 0
1406 1400 1403 0
-1408 -144 0
-1408 -145 0
1408 144 145 0
-1409 -1407 0
-1409 -1408 0
1409 1407 1408 0
-1410 -1406 0
-1410 1409 0
1410 1406 -1409 0
-1413 -1407 0
-1413 -1410 0
1413 1407 1410 0
-1415 -145 0
-1415 -146 0
1415 145 146 0
-1416 -1414 0
-1416 -1415 0
1416 1414 1415 0
-1417 -1413 0
-1417 1416 0
1417 1413 -1416 0
-1420 -1414 0
-1420 -1417 0
1420 1414 1417 0
-1422 -146 0
-1422 -147 0
1422 146 147 0
-1423 -1421 0
-1423 -1422 0
1423 1421 1422 0
-1424 -1420 0
-1424 1423 0
1424 1420 -1423 0
-1427 -1421 0
-1427 -1424 0
1427 1421 1424 0
-1429 -147 0
-1429 -148 0
1429 147 148 0
-1430 -1428 0
-1430 -1429 0
1430 1428 1429 0
-1431 -1427 0
-1431 1430 0
1431 1427 -1430 0
-1434 -1428 0
-1434 -1431 0
1434 1428 1431 0
-1436 -148 0
-1436 -149 0
1436 148 149 0
-1437 -1435 0
-1437 -1436 0
1437 1435 1436 0
-1438 -1434 0
-1438 1437 0
1438 1434 -1437 0
-1441 -1435 0
-1441 -1438 0
1441 1435 1438 0
-1443 -149 0
-1443 -150 0
1443 149 150 0
-1444 -1442 0
-1444 -1443 0
1444 1442 1443 0
-1445 -1441 0
-1445 1444 0
1445 1441 -1444 0
-1448 -1442 0
-1448 -1445 0
1448 1442 1445 0
-1450 -150 0
-1450 -151 0
1450 150 151 0
-1451 -1449 0
-1451 -1450 0
1451 1449 1450 0
-1452 -1448 0
-1452 1451 0
1452 1448 -1451 0
-1455 -1449 0
-1455 -1452 0
1455 1449 1452 0
-1457 -151 0
-1457 -152 0
1457 151 152 0
-1458 -1456 0
-1458 -1457 0
1458 1456 1457 0
-1459 -1455 0
-1459 1458 0
1459 1455 -1458 0
-1462 -1456 0
-1462 -1459 0
1462 1456 1459 0
-1464 -152 0
-1464 -153 0
1464 152 153 0
-1465 -1463 0
-1465 -1464 0
1465 1463 1464 0
-1466 -1462 0
-1466 1465 0
1466 1462 -1465 0
-1469 -1463 0
-1469 -1466 0
1469 1463 1466 0
-1471 -153 0
-1471 -154 0
1471 153 154 0
-1472 -1470 0
-1472 -1471 0
1472 1470 1471 0
-1473 -1469 0
-1473 1472 0
1473 1469 -1472 0
-1476 -1470 0
-1476 -1473 0
1476 1470 1473 0
-1478 -154 0
-1478 -155 0
1478 154 155 0
-1479 -1477 0
-1479 -1478 0
1479 1477 1478 0
-1480 -1476 0
-1480 1479 0
1480 1476 -1479 0
-1483 -1477 0
-1483 -1480 0
1483 1477 1480 0
-1485 -155 0
-1485 -156 0
1485 155 156 0
-1486 -1484 0
-1486 -1485 0
1486 1484 1485 0
-1487 -1483 0
-1487 1486 0
1487 1483 -1486 0
-1490 -1484 0
-1490 -1487 0
1490 1484 1487 0
-1492 -156 0
-1492 -157 0
1492 156 157 0
-1493 -1491 0
-1493 -1492 0
1493 1491 1492 0
-1494 -1490 0
-1494 1493 0
1494 1490 -1493 0
-1497 -1491 0
-1497 -1494 0
1497 1491 1494 0
-1499 -157 0
-1499 -158 0
1499 157 158 0
-1500 -1498 0
-1500 -1499 0
1500 1498 1499 0
-1501 -1497 0
-1501 1500 0
1501 1497 -1500 0
-1504 -1498 0
-1504 -1501 0
1504 1498 1501 0
-1506 -158 0
-1506 -159 0
1506 158 159 0
-1507 -1505 0
-1507 -1506 0
1507 1505 1506 0
-1508 -1504 0
-1508 1507 0
1508 1504 -1507 0
-1511 -1505 0
-1511 -1508 0
1511 1505 1508 0
-1513 -159 0
-1513 -160 0
1513 159 160 0
-1514 -1512 0
-1514 -1513 0
1514 1512 1513 0
-1515 -1511 0
-1515 1514 0
1515 1511 -1514 0
-1518 -1512 0
-1518 -1515 0
1518 1512 1515 0
-1520 -160 0
-1520 -161 0
1520 160 161 0
-1521 -1519 0
-1521 -1520 0
1521 1519 1520 0
-1522 -1518 0
-1522 1521 0
1522 1518 -1521 0
-1525 -1519 0
-1525 -1522 0
1525 1519 1522 0
-1527 -161 0
-1527 -162 0
1527 161 162 0
-1528 -1526 0
-1528 -1527 0
1528 1526 1527 0
-1529 -1525 0
-1529 1528 0
1529 1525 -1528 0
-1532 -1526 0
-1532 -1529 0
1532 1526 1529 0
-1534 -162 0
-1534 -163 0
1534 162 163 0
-1535 -1533 0
-1535 -1534 0
1535 1533 1534 0
-1536 -1532 0
-1536 1535 0
1536 1532 -1535 0
-1539 -1533 0
-1539 -1536 0
1539 1533 1536 0
-1541 -163 0
-1541 -164 0
1541 163 164 0
-1542 -1540 0
-1542 -1541 0
1542 1540 1541 0
-1543 -1539 0
-1543 1542 0
1543 1539 -1542 0
-1546 -1540 0
-1546 -1543 0
1546 1540 1543 0
-1548 -164 0
-1548 -165 0
1548 164 165 0
-1549 -1547 0
-1549 -1548 0
1549 1547 1548 0
-1550 -1546 0
-1550 1549 0
1550 1546 -1549 0
-1553 -1547 0
-1553 -1550 0
1553 1547 1550 0
-1555 -165 0
-1555 -166 0
1555 165 166 0
-1556 -1554 0
-1556 -1555 0
1556 1554 1555 0
-1557 -1553 0
-1557 1556 0
1557 1553 -1556 0
-1560 -1554 0
-1560 -1557 0
1560 1554 1557 0
-1562 -166 0
-1562 -167 0
1562 166 167 0
-1563 -1561 0
-1563 -1562 0
1563 1561 1562 0
-1564 -1560 0
-1564 1563 0
1564 1560 -1563 0
-1567 -1561 0
-1567 -1564 0
1567 1561 1564 0
-1569 -167 0
-1569 -168 0
1569 167 168 0
-1570 -1568 0
-1570 -1569 0
1570 1568 1569 0
-1571 -1567 0
-1571 1570 0
1571 1567 -1570 0
-1574 -1568 0
-1574 -1571 0
1574 1568 1571 0
-1576 -168 0
-1576 -169 0
1576 168 169 0
-1577 -1575 0
-1577 -1576 0
1577 1575 1576 0
-1578 -1574 0
-1578 1577 0
1578 1574 -1577 0
-1581 -1575 0
-1581 -1578 0
1581 1575 1578 0
-1583 -169 0
-1583 -170 0
1583 169 170 0
-1584 -1582 0
-1584 -1583 0
1584 1582 1583 0
-1585 -1581 0
-1585 1584 0
1585 1581 -1584 0
-1588 -1582 0
-1588 -1585 0
1588 1582 1585 0
-1590 -170 0
-1590 -171 0
1590 170 171 0
-1591 -1589 0
-1591 -1590 0
1591 1589 1590 0
-1592 -1588 0
-1592 1591 0
1592 1588 -1591 0
-1595 -1589 0
-1595 -1592 0
1595 1589 1592 0
-1597 -171 0
-1597 -172 0
1597 171 172 0
-1598 -1596 0
-1598 -1597 0
1598 1596 1597 0
-1599 -1595 0
-1599 1598 0
1599 1595 -1598 0
-1602 -1596 0
-1602 -1599 0
1602 1596 1599 0
-1604 -172 0
-1604 -173 0
1604 172 173 0
-1605 -1603 0
-1605 -1604 0
1605 1603 1604 0
-1606 -1602 0
-1606 1605 0
1606 1602 -1605 0
-1609 -1603 0
-1609 -1606 0
1609 1603 1606 0
-1611 -173 0
-1611 -174 0
1611 173 174 0
-1612 -1610 0
-1612 -1611 0
1612 1610 1611 0
-1613 -1609 0
-1613 1612 0
1613 1609 -1612 0
-1616 -1610 0
-1616 -1613 0
1616 1610 1613 0
-1618 -174 0
-1618 -175 0
1618 174 175 0
-1619 -1617 0
-1619 -1618 0
1619 1617 1618 0
-1620 -1616 0
-1620 1619 0
1620 1616 -1619 0
-1623 -1617 0
-1623 -1620 0
1623 1617 1620 0
-1625 -175 0
-1625 -176 0
1625 175 176 0
-1626 -1624 0
-1626 -1625 0
1626 1624 1625 0
-1627 -1623 0
-1627 1626 0
1627 1623 -1626 0
-1630 -1624 0
-1630 -1627 0
1630 1624 1627 0
-1632 -176 0
-1632 -177 0
1632 176 177 0
-1633 -1631 0
-1633 -1632 0
1633 1631 1632 0
-1634 -1630 0
-1634 1633 0
1634 1630 -1633 0
-1637 -1631 0
-1637 -1634 0
1637 1631 1634 0
-1639 -177 0
-1639 -178 0
1639 177 178 0
-1640 -1638 0
-1640 -1639 0
1640 1638 1639 0
-1641 -1637 0
-1641 1640 0
1641 1637 -1640 0
-1644 -1638 0
-1644 -1641 0
1644 1638 1641 0
-1646 -178 0
-1646 -179 0
1646 178 179 0
-1647 -1645 0
-1647 -1646 0
1647 1645 1646 0
-1648 -1644 0
-1648 1647 0
1648 1644 -1647 0
-1651 -1645 0
-1651 -1648 0
1651 1645 1648 0
-1653 -179 0
-1653 -180 0
1653 179 180 0
-1654 -1652 0
-1654 -1653 0
1654 1652 1653 0
-1655 -1651 0
-1655 1654 0
1655 1651 -1654 0
-1658 -1652 0
-1658 -1655 0
1658 1652 1655 0
-1660 -180 0
-1660 -181 0
1660 180 181 0
-1661 -1659 0
-1661 -1660 0
1661 1659 1660 0
-1662 -1658 0
-1662 1661 0
1662 1658 -1661 0
-1665 -1659 0
-1665 -1662 0
1665 1659 1662 0
-1667 -181 0
-1667 -182 0
1667 181 182 0
-1668 -1666 0
-1668 -1667 0
1668 1666 1667 0
-1669 -1665 0
-1669 1668 0
1669 1665 -1668 0
-1672 -1666 0
-1672 -1669 0
1672 1666 1669 0
-1674 -182 0
-1674 -183 0
1674 182 183 0
-1675 -1673 0
-1675 -1674 0
1675 1673 1674 0
-1676 -1672 0
-1676 1675 0
1676 1672 -1675 0
-1679 -1673 0
-1679 -1676 0
1679 1673 1676 0
-1681 -183 0
-1681 -184 0
1681 183 184 0
-1682 -1680 0
-1682 -1681 0
1682 1680 1681 0
-1683 -1679 0
-1683 1682 0
1683 1679 -1682 0
-1686 -1680 0
-1686 -1683 0
1686 1680 1683 0
-1688 -184 0
-1688 -185 0
1688 184 185 0
-1689 -1687 0
-1689 -1688 0
1689 1687 1688 0
-1690 -1686 0
-1690 1689 0
1690 1686 -1689 0
-1693 -1687 0
-1693 -1690 0
1693 1687 1690 0
-1695 -185 0
-1695 -186 0
1695 185 186 0
-1696 -1694 0
-1696 -1695 0
1696 1694 1695 0
-1697 -1693 0
-1697 1696 0
1697 1693 -1696 0
-1700 -1694 0
-1700 -1697 0
1700 1694 1697 0
-1702 -186 0
-1702 -187 0
1702 186 187 0
-1703 -1701 0
-1703 -1702 0
1703 1701 1702 0
-1704 -1700 0
-1704 1703 0
1704 1700 -1703 0
-1707 -1701 0
-1707 -1704 0
1707 1701 1704 0
-1709 -187 0
-1709 -188 0
1709 187 188 0
-1710 -1708 0
-1710 -1709 0
1710 1708 1709 0
-1711 -1707 0
-1711 1710 0
1711 1707 -1710 0
-1714 -1708 0
-1714 -1711 0
1714 1708 1711 0
-1716 -188 0
-1716 -189 0
1716 188 189 0
-1717 -1715 0
-1717 -1716 0
1717 1715 1716 0
-1718 -1714 0
-1718 1717 0
1718 1714 -1717 0
-1721 -1715 0
-1721 -1718 0
1721 1715 1718 0
-1723 -189 0
-1723 -190 0
1723 189 190 0
-1724 -1722 0
-1724 -1723 0
1724 1722 1723 0
-1725 -1721 0
-1725 1724 0
1725 1721 -1724 0
-1728 -1722 0
-1728 -1725 0
1728 1722 1725 0
-1730 -190 0
-1730 -191 0
1730 190 191 0
-1731 -1729 0
-1731 -1730 0
1731 1729 1730 0
-1732 -1728 0
-1732 1731 0
1732 1728 -1731 0
-1735 -1729 0
-1735 -1732 0
1735 1729 1732 0
-1736 191 0
-1736 192 0
1736 -191 -192 0
-1737 -191 0
-1737 -192 0
1737 191 192 0
-1738 -1736 0
-1738 -1737 0
1738 1736 1737 0
-1739 -1735 0
-1739 1738 0
1739 1735 -1738 0
-1740 1735 0
-1740 -1738 0
1740 -1735 1738 0
-1741 -1739 0
-1741 -1740 0
1741 1739 1740 0
-1733 1728 0
-1733 -1731 0
1733 -1728 1731 0
-1734 -1732 0
-1734 -1733 0
1734 1732 1733 0
-1726 1721 0
-1726 -1724 0
1726 -1721 1724 0
-1727 -1725 0
-1727 -1726 0
1727 1725 1726 0
-1719 1714 0
-1719 -1717 0
1719 -1714 1717 0
-1720 -1718 0
-1720 -1719 0
1720 1718 1719 0
-1712 1707 0
-1712 -1710 0
1712 -1707 1710 0
-1713 -1711 0
-1713 -1712 0
1713 1711 1712 0
-1705 1700 0
-1705 -1703 0
1705 -1700 1703 0
-1706 -1704 0
-1706 -1705 0
1706 1704 1705 0
-1698 1693 0
-1698 -1696 0
1698 -1693 1696 0
-1699 -1697 0
-1699 -1698 0
1699 1697 1698 0
-1691 1686 0
-1691 -1689 0
1691 -1686 1689 0
-1692 -1690 0
-1692 -1691 0
1692 1690 1691 0
-1684 1679 0
-1684 -1682 0
1684 -1679 1682 0
-1685 -1683 0
-1685 -1684 0
1685 1683 1684 0
-1677 1672 0
-1677 -1675 0
1677 -1672 1675 0
-1678 -1676 0
-1678 -1677 0
1678 1676 1677 0
-1670 1665 0
-1670 -1668 0
1670 -1665 1668 0
-1671 -1669 0
-1671 -1670 0
1671 1669 1670 0
-1663 1658 0
-1663 -1661 0
1663 -1658 1661 0
-1664 -1662 0
-1664 -1663 0
1664 1662 1663 0
-1656 1651 0
-1656 -1654 0
1656 -1651 1654 0
-1657 -1655 0
-1657 -1656 0
1657 1655 1656 0
-1649 1644 0
-1649 -1647 0
1649 -1644 1647 0
-1650 -1648 0
-1650 -1649 0
1650 1648 1649 0
-1642 1637 0
-1642 -1640 0
1642 -1637 1640 0
-1643 -1641 0
-1643 -1642 0
1643 1641 1642 0
-1635 1630 0
-1635 -1633 0
1635 -1630 1633 0
-1636 -1634 0
-1636 -1635 0
1636 1634 1635 0
-1628 1623 0
-1628 -1626 0
1628 -1623 1626 0
-1629 -1627 0
-1629 -1628 0
1629 1627 1628 0
-1621 1616 0
-1621 -1619 0
1621 -1616 1619 0
-1622 -1620 0
-1622 -1621 0
1622 1620 1621 0
-1614 1609 0
-1614 -1612 0
1614 -1609 1612 0
-1615 -1613 0
-1615 -1614 0
1615 1613 1614 0
-1607 1602 0
-1607 -1605 0
1607 -1602 1605 0
-1608 -1606 0
-1608 -1607 0
1608 1606 1607 0
-1600 1595 0
-1600 -1598 0
1600 -1595 1598 0
-1601 -1599 0
-1601 -1600 0
1601 1599 1600 0
-1593 1588 0
-1593 -1591 0
1593 -1588 1591 0
-1594 -1592 0
-1594 -1593 0
1594 1592 1593 0
-1586 1581 0
-1586 -1584 0
1586 -1581 1584 0
-1587 -1585 0
-1587 -1586 0
1587 1585 1586 0
-1579 1574 0
-1579 -1577 0
1579 -1574 1577 0
-1580 -1578 0
-1580 -1579 0
1580 1578 1579 0
-1572 1567 0
-1572 -1570 0
1572 -1567 1570 0
-1573 -1571 0
-1573 -1572 0
1573 1571 1572 0
-1565 1560 0
-1565 -1563 0
1565 -1560 1563 0
-1566 -1564 0
-1566 -1565 0
1566 1564 1565 0
-1558 1553 0
-1558 -1556 0
1558 -1553 1556 0
-1559 -1557 0
-1559 -1558 0
1559 1557 1558 0
-1551 1546 0
-1551 -1549 0
1551 -1546 1549 0
-1552 -1550 0
-1552 -1551 0
1552 1550 1551 0
-1544 1539 0
-1544 -1542 0
1544 -1539 1542 0
-1545 -1543 0
-1545 -1544 0
1545 1543 1544 0
-1537 1532 0
-1537 -1535 0
1537 -1532 1535 0
-1538 -1536 0
-1538 -1537 0
1538 1536 1537 0
-1530 1525 0
-1530 -1528 0
1530 -1525 1528 0
-1531 -1529 0
-1531 -1530 0
1531 1529 1530 0
-1523 1518 0
-1523 -1521 0
1523 -1518 1521 0
-1524 -1522 0
-1524 -1523 0
1524 1522 1523 0
-1516 1511 0
-1516 -1514 0
1516 -1511 1514 0
-1517 -1515 0
-1517 -1516 0
1517 1515 1516 0
-1509 1504 0
-1509 -1507 0
1509 -1504 1507 0
-1510 -1508 0
-1510 -1509 0
1510 1508 1509 0
-1502 1497 0
-1502 -1500 0
1502 -1497 1500 0
-1503 -1501 0
-1503 -1502 0
1503 1501 1502 0
-1495 1490 0
-1495 -1493 0
1495 -1490 1493 0
-1496 -1494 0
-1496 -1495 0
1496 1494 1495 0
-1488 1483 0
-1488 -1486 0
1488 -1483 1486 0
-1489 -1487 0
-1489 -1488 0
1489 1487 1488 0
-1481 1476 0
-1481 -1479 0
1481 -1476 1479 0
-1482 -1480 0
-1482 -1481 0
1482 1480 1481 0
-1474 1469 0
-1474 -1472 0
1474 -1469 1472 0
-1475 -1473 0
-1475 -1474 0
1475 1473 1474 0
-1467 1462 0
-1467 -1465 0
1467 -1462 1465 0
-1468 -1466 0
-1468 -1467 0
1468 1466 1467 0
-1460 1455 0
-1460 -1458 0
1460 -1455 1458 0
-1461 -1459 0
-1461 -1460 0
1461 1459 1460 0
-1453 1448 0
-1453 -1451 0
1453 -1448 1451 0
-1454 -1452 0
-1454 -1453 0
1454 1452 1453 0
-1446 1441 0
-1446 -1444 0
1446 -1441 1444 0
-1447 -1445 0
-1447 -1446 0
1447 1445 1446 0
-1439 1434 0
-1439 -1437 0
1439 -1434 1437 0
-1440 -1438 0
-1440 -1439 0
1440 1438 1439 0
-1432 1427 0
-1432 -1430 0
1432 -1427 1430 0
-1433 -1431 0
-1433 -1432 0
1433 1431 1432 0
-1425 1420 0
-1425 -1423 0
1425 -1420 1423 0
-1426 -1424 0
-1426 -1425 0
1426 1424 1425 0
-1418 1413 0
-1418 -1416 0
1418 -1413 1416 0
-1419 -1417 0
-1419 -1418 0
1419 1417 1418 0
-1411 1406 0
-1411 -1409 0
1411 -1406 1409 0
-1412 -1410 0
-1412 -1411 0
1412 1410 1411 0
-1404 1399 0
-1404 -1402 0
1404 -1399 1402 0
-1405 -1403 0
-1405 -1404 0
1405 1403 1404 0
-1397 1392 0
-1397 -1395 0
1397 -1392 1395 0
-1398 -1396 0
-1398 -1397 0
1398 1396 1397 0
-1390 1385 0
-1390 -1388 0
1390 -1385 1388 0
-1391 -1389 0
-1391 -1390 0
1391 1389 1390 0
-1383 1378 0
-1383 -1381 0
1383 -1378 1381 0
-1384 -1382 0
-1384 -1383 0
1384 1382 1383 0
-1376 1371 0
-1376 -1374 0
1376 -1371 1374 0
-1377 -1375 0
-1377 -1376 0
1377 1375 1376 0
-1369 1364 0
-1369 -1367 0
1369 -1364 1367 0
-1370 -1368 0
-1370 -1369 0
1370 1368 1369 0
-1362 1357 0
-1362 -1360 0
1362 -1357 1360 0
-1363 -1361 0
-1363 -1362 0
1363 1361 1362 0
-1355 1350 0
-1355 -1353 0
1355 -1350 1353 0
-1356 -1354 0
-1356 -1355 0
1356 1354 1355 0
-1348 1343 0
-1348 -1346 0
1348 -1343 1346 0
-1349 -1347 0
-1349 -1348 0
1349 1347 1348 0
-1341 1336 0
-1341 -1339 0
1341 -1336 1339 0
-1342 -1340 0
-1342 -1341 0
1342 1340 1341 0
-1334 1329 0
-1334 -1332 0
1334 -1329 1332 0
-1335 -1333 0
-1335 -1334 0
1335 1333 1334 0
-1327 1322 0
-1327 -1325 0
1327 -1322 1325 0
-1328 -1326 0
-1328 -1327 0
1328 1326 1327 0
-1320 1315 0
-1320 -1318 0
1320 -1315 1318 0
-1321 -1319 0
-1321 -1320 0
1321 1319 1320 0
-1313 -1306 0
-1313 -1311 0
1313 1306 1311 0
-1314 -1312 0
-1314 -1313 0
1314 1312 1313 0
-1307 -129 0
-1307 -130 0
1307 129 130 0
-1308 -1306 0
-1308 -1307 0
1308 1306 1307 0
-1743 129 0
-1743 1308 0
1743 -129 -1308 0
-1746 1314 0
-1746 1743 0
1746 -1314 -1743 0
-1749 1321 0
-1749 1746 0
1749 -1321 -1746 0
-1752 1328 0
-1752 1749 0
1752 -1328 -1749 0
-1755 1335 0
-1755 1752 0
1755 -1335 -1752 0
-1758 1342 0
-1758 1755 0
1758 -1342 -1755 0
-1761 1349 0
-1761 1758 0
1761 -1349 -1758 0
-1764 1356 0
-1764 1761 0
1764 -1356 -1761 0
-1767 1363 0
-1767 1764 0
1767 -1363 -1764 0
-1770 1370 0
-1770 1767 0
1770 -1370 -1767 0
-1773 1377 0
-1773 1770 0
1773 -1377 -1770 0
-1776 1384 0
-1776 1773 0
1776 -1384 -1773 0
-1779 1391 0
-1779 1776 0
1779 -1391 -1776 0
-1782 1398 0
-1782 1779 0
1782 -1398 -1779 0
-1785 1405 0
-1785 1782 0
1785 -1405 -1782 0
-1788 1412 0
-1788 1785 0
1788 -1412 -1785 0
-1791 1419 0
-1791 1788 0
1791 -1419 -1788 0
-1794 1426 0
-1794 1791 0
1794 -1426 -1791 0
-1797 1433 0
-1797 1794 0
1797 -1433 -1794 0
-1800 1440 0
-1800 1797 0
1800 -1440 -1797 0
-1803 1447 0
-1803 1800 0
1803 -1447 -1800 0
-1806 1454 0
-1806 1803 0
1806 -1454 -1803 0
-1809 1461 0
-1809 1806 0
1809 -1461 -1806 0
-1812 1468 0
-1812 1809 0
1812 -1468 -1809 0
-1815 1475 0
-1815 1812 0
1815 -1475 -1812 0
-1818 1482 0
-1818 1815 0
1818 -1482 -1815 0
-1821 1489 0
-1821 1818 0
1821 -1489 -1818 0
-1824 1496 0
-1824 1821 0
1824 -1496 -1821 0
-1827 1503 0
-1827 1824 0
1827 -1503 -1824 0
-1830 1510 0
-1830 1827 0
1830 -1510 -1827 0
-1833 1517 0
-1833 1830 0
1833 -1517 -1830 0
-1836 1524 0
-1836 1833 0
1836 -1524 -1833 0
-1839 1531 0
-1839 1836 0
1839 -1531 -1836 0
-1842 1538 0
-1842 1839 0
1842 -1538 -1839 0
-1845 1545 0
-1845 1842 0
1845 -1545 -1842 0
-1848 1552 0
-1848 1845 0
1848 -1552 -1845 0
-1851 1559 0
-1851 1848 0
1851 -1559 -1848 0
-1854 1566 0
-1854 1851 0
1854 -1566 -1851 0
-1857 1573 0
-1857 1854 0
1857 -1573 -1854 0
-1860 1580 0
-1860 1857 0
1860 -1580 -1857 0
-1863 1587 0
-1863 1860 0
1863 -1587 -1860 0
-1866 1594 0
-1866 1863 0
1866 -1594 -1863 0
-1869 1601 0
-1869 1866 0
1869 -1601 -1866 0
-1872 1608 0
-1872 1869 0
1872 -1608 -1869 0
-1875 1615 0
-1875 1872 0
1875 -1615 -1872 0
-1878 1622 0
-1878 1875 0
1878 -1622 -1875 0
-1881 1629 0
-1881 1878 0
1881 -1629 -1878 0
-1884 1636 0
-1884 1881 0
1884 -1636 -1881 0
-1887 1643 0
-1887 1884 0
1887 -1643 -1884 0
-1890 1650 0
-1890 1887 0
1890 -1650 -1887 0
-1893 1657 0
-1893 1890 0
1893 -1657 -1890 0
-1896 1664 0
-1896 1893 0
1896 -1664 -1893 0
-1899 1671 0
-1899 1896 0
1899 -1671 -1896 0
-1902 1678 0
-1902 1899 0
1902 -1678 -1899 0
-1905 1685 0
-1905 1902 0
1905 -1685 -1902 0
-1908 1692 0
-1908 1905 0
1908 -1692 -1905 0
-1911 1699 0
-1911 1908 0
1911 -1699 -1908 0
-1914 1706 0
-1914 1911 0
1914 -1706 -1911 0
-1917 1713 0
-1917 1914 0
1917 -1713 -1914 0
-1920 1720 0
-1920 1917 0
1920 -1720 -1917 0
-1923 1727 0
-1923 1920 0
1923 -1727 -1920 0
-1926 1734 0
-1926 1923 0
1926 -1734 -1923 0
-1929 1741 0
-1929 1926 0
1929 -1741 -1926 0
-1930 -1741 0
-1930 -1926 0
1930 1741 1926 0
-1931 -1929 0
-1931 -1930 0
1931 1929 1930 0
-2118 1304 0
-2118 -1931 0
2118 -1304 1931 0
-2119 -1304 0
-2119 1931 0
2119 1304 -1931 0
-2120 -2118 0
-2120 -2119 0
2120 2118 2119 0
1303 -16549 0
-1303 16549 0
-1927 -1734 0
-1927 -1923 0
1927 1734 1923 0
-1928 -1926 0
-1928 -1927 0
1928 1926 1927 0
-2115 1303 0
-2115 -1928 0
2115 -1303 1928 0
-2116 -1303 0
-2116 1928 0
2116 1303 -1928 0
-2117 -2115 0
-2117 -2116 0
2117 2115 2116 0
1302 -16548 0
-1302 16548 0
-1924 -1727 0
-1924 -1920 0
1924 1727 1920 0
-1925 -1923 0
-1925 -1924 0
1925 1923 1924 0
-2112 1302 0
-2112 -1925 0
2112 -1302 1925 0
-2113 -1302 0
-2113 1925 0
2113 1302 -1925 0
-2114 -2112 0
-2114 -2113 0
2114 2112 2113 0
1301 -16547 0
-1301 16547 0
-1921 -1720 0
-1921 -1917 0
1921 1720 1917 0
-1922 -1920 0
-1922 -1921 0
1922 1920 1921 0
-2109 1301 0
-2109 -1922 0
2109 -1301 1922 0
-2110 -1301 0
-2110 1922 0
2110 1301 -1922 0
-2111 -2109 0
-2111 -2110 0
2111 2109 2110 0
1300 -16546 0
-1300 16546 0
-1918 -1713 0
-1918 -1914 0
1918 1713 1914 0
-1919 -1917 0
-1919 -1918 0
1919 1917 1918 0
-2106 1300 0
-2106 -1919 0
2106 -1300 1919 0
-2107 -1300 0
-2107 1919 0
2107 1300 -1919 0
-2108 -2106 0
-2108 -2107 0
2108 2106 2107 0
1299 -16545 0
-1299 16545 0
-1915 -1706 0
-1915 -1911 0
1915 1706 1911 0
-1916 -1914 0
-1916 -1915 0
1916 1914 1915 0
-2103 1299 0
-2103 -1916 0
2103 -1299 1916 0
-2104 -1299 0
-2104 1916 0
2104 1299 -1916 0
-2105 -2103 0
-2105 -2104 0
2105 2103 2104 0
1298 -16544 0
-1298 16544 0
-1912 -1699 0
-1912 -1908 0
1912 1699 1908 0
-1913 -1911 0
-1913 -1912 0
1913 1911 1912 0
-2100 1298 0
-2100 -1913 0
2100 -1298 1913 0
-2101 -1298 0
-2101 1913 0
2101 1298 -1913 0
-2102 -2100 0
-2102 -2101 0
2102 2100 2101 0
1297 -16543 0
-1297 16543 0
-1909 -1692 0
-1909 -1905 0
1909 1692 1905 0
-1910 -1908 0
-1910 -1909 0
1910 1908 1909 0
-2097 1297 0
-2097 -1910 0
2097 -1297 1910 0
-2098 -1297 0
-2098 1910 0
2098 1297 -1910 0
-2099 -2097 0
-2099 -2098 0
2099 2097 2098 0
1296 -16542 0
-1296 16542 0
-1906 -1685 0
-1906 -1902 0
1906 1685 1902 0
-1907 -1905 0
-1907 -1906 0
1907 1905 1906 0
-2094 1296 0
-2094 -1907 0
2094 -1296 1907 0
-2095 -1296 0
-2095 1907 0
2095 1296 -1907 0
-2096 -2094 0
-2096 -2095 0
2096 2094 2095 0
1295 -16541 0
-1295 16541 0
-1903 -1678 0
-1903 -1899 0
1903 1678 1899 0
-1904 -1902 0
-1904 -1903 0
1904 1902 1903 0
-2091 1295 0
-2091 -1904 0
2091 -1295 1904 0
-2092 -1295 0
-2092 1904 0
2092 1295 -1904 0
-2093 -2091 0
-2093 -2092 0
2093 2091 2092 0
1294 -16540 0
-1294 16540 0
-1900 -1671 0
-1900 -1896 0
1900 1671 1896 0
-1901 -1899 0
-1901 -1900 0
1901 1899 1900 0
-2088 1294 0
-2088 -1901 0
2088 -1294 1901 0
-2089 -1294 0
-2089 1901 0
2089 1294 -1901 0
-2090 -2088 0
-2090 -2089 0
2090 2088 2089 0
1293 -16539 0
-1293 16539 0
-1897 -1664 0
-1897 -1893 0
1897 1664 1893 0
-1898 -1896 0
-1898 -1897 0
1898 1896 1897 0
-2085 1293 0
-2085 -1898 0
2085 -1293 1898 0
-2086 -1293 0
-2086 1898 0
2086 1293 -1898 0
-2087 -2085 0
-2087 -2086 0
2087 2085 2086 0
1292 -16538 0
-1292 16538 0
-1894 -1657 0
-1894 -1890 0
1894 1657 1890 0
-1895 -1893 0
-1895 -1894 0
1895 1893 1894 0
-2082 1292 0
-2082 -1895 0
2082 -1292 1895 0
-2083 -1292 0
-2083 1895 0
2083 1292 -1895 0
-2084 -2082 0
-2084 -2083 0
2084 2082 2083 0
1291 -16537 0
-1291 16537 0
-1891 -1650 0
-1891 -1887 0
1891 1650 1887 0
-1892 -1890 0
-1892 -1891 0
1892 1890 1891 0
-2079 1291 0
-2079 -1892 0
2079 -1291 1892 0
-2080 -1291 0
-2080 1892 0
2080 1291 -1892 0
-2081 -2079 0
-2081 -2080 0
2081 2079 2080 0
1290 -16536 0
-1290 16536 0
-1888 -1643 0
-1888 -1884 0
1888 1643 1884 0
-1889 -1887 0
-1889 -1888 0
1889 1887 1888 0
-2076 1290 0
-2076 -1889 0
2076 -1290 1889 0
-2077 -1290 0
-2077 1889 0
2077 1290 -1889 0
-2078 -2076 0
-2078 -2077 0
2078 2076 2077 0
1289 -16535 0
-1289 16535 0
-1885 -1636 0
-1885 -1881 0
1885 1636 1881 0
-1886 -1884 0
-1886 -1885 0
1886 1884 1885 0
-2073 1289 0
-2073 -1886 0
2073 -1289 1886 0
-2074 -1289 0
-2074 1886 0
2074 1289 -1886 0
-2075 -2073 0
-2075 -2074 0
2075 2073 2074 0
1288 -16534 0
-1288 16534 0
-1882 -1629 0
-1882 -1878 0
1882 1629 1878 0
-1883 -1881 0
-1883 -1882 0
1883 1881 1882 0
-2070 1288 0
-2070 -1883 0
2070 -1288 1883 0
-2071 -1288 0
-2071 1883 0
2071 1288 -1883 0
-2072 -2070 0
-2072 -2071 0
2072 2070 2071 0
1287 -16533 0
-1287 16533 0
-1879 -1622 0
-1879 -1875 0
1879 1622 1875 0
-1880 -1878 0
-1880 -1879 0
1880 1878 1879 0
-2067 1287 0
-2067 -1880 0
2067 -1287 1880 0
-2068 -1287 0
-2068 1880 0
2068 1287 -1880 0
-2069 -2067 0
-2069 -2068 0
2069 2067 2068 0
1286 -16532 0
-1286 16532 0
-1876 -1615 0
-1876 -1872 0
1876 1615 1872 0
-1877 -1875 0
-1877 -1876 0
1877 1875 1876 0
-2064 1286 0
-2064 -1877 0
2064 -1286 1877 0
-2065 -1286 0
-2065 1877 0
2065 1286 -1877 0
-2066 -2064 0
-2066 -2065 0
2066 2064 2065 0
1285 -16531 0
-1285 16531 0
-1873 -1608 0
-1873 -1869 0
1873 1608 1869 0
-1874 -1872 0
-1874 -1873 0
1874 1872 1873 0
-2061 1285 0
-2061 -1874 0
2061 -1285 1874 0
-2062 -1285 0
-2062 1874 0
2062 1285 -1874 0
-2063 -2061 0
-2063 -2062 0
2063 2061 2062 0
1284 -16530 0
-1284 16530 0
-1870 -1601 0
-1870 -1866 0
1870 1601 1866 0
-1871 -1869 0
-1871 -1870 0
1871 1869 1870 0
-2058 1284 0
-2058 -1871 0
2058 -1284 1871 0
-2059 -1284 0
-2059 1871 0
2059 1284 -1871 0
-2060 -2058 0
-2060 -2059 0
2060 2058 2059 0
1283 -16529 0
-1283 16529 0
-1867 -1594 0
-1867 -1863 0
1867 1594 1863 0
-1868 -1866 0
-1868 -1867 0
1868 1866 1867 0
-2055 1283 0
-2055 -1868 0
2055 -1283 1868 0
-2056 -1283 0
-2056 1868 0
2056 1283 -1868 0
-2057 -2055 0
-2057 -2056 0
2057 2055 2056 0
1282 -16528 0
-1282 16528 0
-1864 -1587 0
-1864 -1860 0
1864 1587 1860 0
-1865 -1863 0
-1865 -1864 0
1865 1863 1864 0
-2052 1282 0
-2052 -1865 0
2052 -1282 1865 0
-2053 -1282 0
-2053 1865 0
2053 1282 -1865 0
-2054 -2052 0
-2054 -2053 0
2054 2052 2053 0
1281 -16527 0
-1281 16527 0
-1861 -1580 0
-1861 -1857 0
1861 1580 1857 0
-1862 -1860 0
-1862 -1861 0
1862 1860 1861 0
-2049 1281 0
-2049 -1862 0
2049 -1281 1862 0
-2050 -1281 0
-2050 1862 0
2050 1281 -1862 0
-2051 -2049 0
-2051 -2050 0
2051 2049 2050 0
1280 -16526 0
-1280 16526 0
-1858 -1573 0
-1858 -1854 0
1858 1573 1854 0
-1859 -1857 0
-1859 -1858 0
1859 1857 1858 0
-2046 1280 0
-2046 -1859 0
2046 -1280 1859 0
-2047 -1280 0
-2047 1859 0
2047 1280 -1859 0
-2048 -2046 0
-2048 -2047 0
2048 2046 2047 0
1279 -16525 0
-1279 16525 0
-1855 -1566 0
-1855 -1851 0
1855 1566 1851 0
-1856 -1854 0
-1856 -1855 0
1856 1854 1855 0
-2043 1279 0
-2043 -1856 0
2043 -1279 1856 0
-2044 -1279 0
-2044 1856 0
2044 1279 -1856 0
-2045 -2043 0
-2045 -2044 0
2045 2043 2044 0
1278 -16524 0
-1278 16524 0
-1852 -1559 0
-1852 -1848 0
1852 1559 1848 0
-1853 -1851 0
-1853 -1852 0
1853 1851 1852 0
-2040 1278 0
-2040 -1853 0
2040 -1278 1853 0
-2041 -1278 0
-2041 1853 0
2041 1278 -1853 0
-2042 -2040 0
-2042 -2041 0
2042 2040 2041 0
1277 -16523 0
-1277 16523 0
-1849 -1552 0
-1849 -1845 0
1849 1552 1845 0
-1850 -1848 0
-1850 -1849 0
1850 1848 1849 0
-2037 1277 0
-2037 -1850 0
2037 -1277 1850 0
-2038 -1277 0
-2038 1850 0
2038 1277 -1850 0
-2039 -2037 0
-2039 -2038 0
2039 2037 2038 0
1276 -16522 0
-1276 16522 0
-1846 -1545 0
-1846 -1842 0
1846 1545 1842 0
-1847 -1845 0
-1847 -1846 0
1847 1845 1846 0
-2034 1276 0
-2034 -1847 0
2034 -1276 1847 0
-2035 -1276 0
-2035 1847 0
2035 1276 -1847 0
-2036 -2034 0
-2036 -2035 0
2036 2034 2035 0
1275 -16521 0
-1275 16521 0
-1843 -1538 0
-1843 -1839 0
1843 1538 1839 0
-1844 -1842 0
-1844 -1843 0
1844 1842 1843 0
-2031 1275 0
-2031 -1844 0
2031 -1275 1844 0
-2032 -1275 0
-2032 1844 0
2032 1275 -1844 0
-2033 -2031 0
-2033 -2032 0
2033 2031 2032 0
1274 -16520 0
-1274 16520 0
-1840 -1531 0
-1840 -1836 0
1840 1531 1836 0
-1841 -1839 0
-1841 -1840 0
1841 1839 1840 0
-2028 1274 0
-2028 -1841 0
2028 -1274 1841 0
-2029 -1274 0
-2029 1841 0
2029 1274 -1841 0
-2030 -2028 0
-2030 -2029 0
2030 2028 2029 0
1273 -16519 0
-1273 16519 0
-1837 -1524 0
-1837 -1833 0
1837 1524 1833 0
-1838 -1836 0
-1838 -1837 0
1838 1836 1837 0
-2025 1273 0
-2025 -1838 0
2025 -1273 1838 0
-2026 -1273 0
-2026 1838 0
2026 1273 -1838 0
-2027 -2025 0
-2027 -2026 0
2027 2025 2026 0
1272 -16518 0
-1272 16518 0
-1834 -1517 0
-1834 -1830 0
1834 1517 1830 0
-1835 -1833 0
-1835 -1834 0
1835 1833 1834 0
-2022 1272 0
-2022 -1835 0
2022 -1272 1835 0
-2023 -1272 0
-2023 1835 0
2023 1272 -1835 0
-2024 -2022 0
-2024 -2023 0
2024 2022 2023 0
1271 -16517 0
-1271 16517 0
-1831 -1510 0
-1831 -1827 0
1831 1510 1827 0
-1832 -1830 0
-1832 -1831 0
1832 1830 1831 0
-2019 1271 0
-2019 -1832 0
2019 -1271 1832 0
-2020 -1271 0
-2020 1832 0
2020 1271 -1832 0
-2021 -2019 0
-2021 -2020 0
2021 2019 2020 0
1270 -16516 0
-1270 16516 0
-1828 -1503 0
-1828 -1824 0
1828 1503 1824 0
-1829 -1827 0
-1829 -1828 0
1829 1827 1828 0
-2016 1270 0
-2016 -1829 0
2016 -1270 1829 0
-2017 -1270 0
-2017 1829 0
2017 1270 -1829 0
-2018 -2016 0
-2018 -2017 0
2018 2016 2017 0
1269 -16515 0
-1269 16515 0
-1825 -1496 0
-1825 -1821 0
1825 1496 1821 0
-1826 -1824 0
-1826 -1825 0
1826 1824 1825 0
-2013 1269 0
-2013 -1826 0
2013 -1269 1826 0
-2014 -1269 0
-2014 1826 0
2014 1269 -1826 0
-2015 -2013 0
-2015 -2014 0
2015 2013 2014 0
1268 -16514 0
-1268 16514 0
-1822 -1489 0
-1822 -1818 0
1822 1489 1818 0
-1823 -1821 0
-1823 -1822 0
1823 1821 1822 0
-2010 1268 0
-2010 -1823 0
2010 -1268 1823 0
-2011 -1268 0
-2011 1823 0
2011 1268 -1823 0
-2012 -2010 0
-2012 -2011 0
2012 2010 2011 0
1267 -16513 0
-1267 16513 0
-1819 -1482 0
-1819 -1815 0
1819 1482 1815 0
-1820 -1818 0
-1820 -1819 0
1820 1818 1819 0
-2007 1267 0
-2007 -1820 0
2007 -1267 1820 0
-2008 -1267 0
-2008 1820 0
2008 1267 -1820 0
-2009 -2007 0
-2009 -2008 0
2009 2007 2008 0
1266 -16512 0
-1266 16512 0
-1816 -1475 0
-1816 -1812 0
1816 1475 1812 0
-1817 -1815 0
-1817 -1816 0
1817 1815 1816 0
-2004 1266 0
-2004 -1817 0
2004 -1266 1817 0
-2005 -1266 0
-2005 1817 0
2005 1266 -1817 0
-2006 -2004 0
-2006 -2005 0
2006 2004 2005 0
1265 -16511 0
-1265 16511 0
-1813 -1468 0
-1813 -1809 0
1813 1468 1809 0
-1814 -1812 0
-1814 -1813 0
1814 1812 1813 0
-2001 1265 0
-2001 -1814 0
2001 -1265 1814 0
-2002 -1265 0
-2002 1814 0
2002 1265 -1814 0
-2003 -2001 0
-2003 -2002 0
2003 2001 2002 0
1264 -16510 0
-1264 16510 0
-1810 -1461 0
-1810 -1806 0
1810 1461 1806 0
-1811 -1809 0
-1811 -1810 0
1811 1809 1810 0
-1998 1264 0
-1998 -1811 0
1998 -1264 1811 0
-1999 -1264 0
-1999 1811 0
1999 1264 -1811 0
-2000 -1998 0
-2000 -1999 0
2000 1998 1999 0
1263 -16509 0
-1263 16509 0
-1807 -1454 0
-1807 -1803 0
1807 1454 1803 0
-1808 -1806 0
-1808 -1807 0
1808 1806 1807 0
-1995 1263 0
-1995 -1808 0
1995 -1263 1808 0
-1996 -1263 0
-1996 1808 0
1996 1263 -1808 0
-1997 -1995 0
-1997 -1996 0
1997 1995 1996 0
1262 -16508 0
-1262 16508 0
-1804 -1447 0
-1804 -1800 0
1804 1447 1800 0
-1805 -1803 0
-1805 -1804 0
1805 1803 1804 0
-1992 1262 0
-1992 -1805 0
1992 -1262 1805 0
-1993 -1262 0
-1993 1805 0
1993 1262 -1805 0
-1994 -1992 0
-1994 -1993 0
1994 1992 1993 0
1261 -16507 0
-1261 16507 0
-1801 -1440 0
-1801 -1797 0
1801 1440 1797 0
-1802 -1800 0
-1802 -1801 0
1802 1800 1801 0
-1989 1261 0
-1989 -1802 0
1989 -1261 1802 0
-1990 -1261 0
-1990 1802 0
1990 1261 -1802 0
-1991 -1989 0
-1991 -1990 0
1991 1989 1990 0
1260 -16506 0
-1260 16506 0
-1798 -1433 0
-1798 -1794 0
1798 1433 1794 0
-1799 -1797 0
-1799 -1798 0
1799 1797 1798 0
-1986 1260 0
-1986 -1799 0
1986 -1260 1799 0
-1987 -1260 0
-1987 1799 0
1987 1260 -1799 0
-1988 -1986 0
-1988 -1987 0
1988 1986 1987 0
1259 -16505 0
-1259 16505 0
-1795 -1426 0
-1795 -1791 0
1795 1426 1791 0
-1796 -1794 0
-1796 -1795 0
1796 1794 1795 0
-1983 1259 0
-1983 -1796 0
1983 -1259 1796 0
-1984 -1259 0
-1984 1796 0
1984 1259 -1796 0
-1985 -1983 0
-1985 -1984 0
1985 1983 1984 0
1258 -16504 0
-1258 16504 0
-1792 -1419 0
-1792 -1788 0
1792 1419 1788 0
-1793 -1791 0
-1793 -1792 0
1793 1791 1792 0
-1980 1258 0
-1980 -1793 0
1980 -1258 1793 0
-1981 -1258 0
-1981 1793 0
1981 1258 -1793 0
-1982 -1980 0
-1982 -1981 0
1982 1980 1981 0
1257 -16503 0
-1257 16503 0
-1789 -1412 0
-1789 -1785 0
1789 1412 1785 0
-1790 -1788 0
-1790 -1789 0
1790 1788 1789 0
-1977 1257 0
-1977 -1790 0
1977 -1257 1790 0
-1978 -1257 0
-1978 1790 0
1978 1257 -1790 0
-1979 -1977 0
-1979 -1978 0
1979 1977 1978 0
1256 -16502 0
-1256 16502 0
-1786 -1405 0
-1786 -1782 0
1786 1405 1782 0
-1787 -1785 0
-1787 -1786 0
1787 1785 1786 0
-1974 1256 0
-1974 -1787 0
1974 -1256 1787 0
-1975 -1256 0
-1975 1787 0
1975 1256 -1787 0
-1976 -1974 0
-1976 -1975 0
1976 1974 1975 0
1255 -16501 0
-1255 16501 0
-1783 -1398 0
-1783 -1779 0
1783 1398 1779 0
-1784 -1782 0
-1784 -1783 0
1784 1782 1783 0
-1971 1255 0
-1971 -1784 0
1971 -1255 1784 0
-1972 -1255 0
-1972 1784 0
1972 1255 -1784 0
-1973 -1971 0
-1973 -1972 0
1973 1971 1972 0
1254 -16500 0
-1254 16500 0
-1780 -1391 0
-1780 -1776 0
1780 1391 1776 0
-1781 -1779 0
-1781 -1780 0
1781 1779 1780 0
-1968 1254 0
-1968 -1781 0
1968 -1254 1781 0
-1969 -1254 0
-1969 1781 0
1969 1254 -1781 0
-1970 -1968 0
-1970 -1969 0
1970 1968 1969 0
1253 -16499 0
-1253 16499 0
-1777 -1384 0
-1777 -1773 0
1777 1384 1773 0
-1778 -1776 0
-1778 -1777 0
1778 1776 1777 0
-1965 1253 0
-1965 -1778 0
1965 -1253 1778 0
-1966 -1253 0
-1966 1778 0
1966 1253 -1778 0
-1967 -1965 0
-1967 -1966 0
1967 1965 1966 0
1252 -16498 0
-1252 16498 0
-1774 -1377 0
-1774 -1770 0
1774 1377 1770 0
-1775 -1773 0
-1775 -1774 0
1775 1773 1774 0
-1962 1252 0
-1962 -1775 0
1962 -1252 1775 0
-1963 -1252 0
-1963 1775 0
1963 1252 -1775 0
-1964 -1962 0
-1964 -1963 0
1964 1962 1963 0
1251 -16497 0
-1251 16497 0
-1771 -1370 0
-1771 -1767 0
1771 1370 1767 0
-1772 -1770 0
-1772 -1771 0
1772 1770 1771 0
-1959 1251 0
-1959 -1772 0
1959 -1251 1772 0
-1960 -1251 0
-1960 1772 0
1960 1251 -1772 0
-1961 -1959 0
-1961 -1960 0
1961 1959 1960 0
1250 -16496 0
-1250 16496 0
-1768 -1363 0
-1768 -1764 0
1768 1363 1764 0
-1769 -1767 0
-1769 -1768 0
1769 1767 1768 0
-1956 1250 0
-1956 -1769 0
1956 -1250 1769 0
-1957 -1250 0
-1957 1769 0
1957 1250 -1769 0
-1958 -1956 0
-1958 -1957 0
1958 1956 1957 0
1249 -16495 0
-1249 16495 0
-1765 -1356 0
-1765 -1761 0
1765 1356 1761 0
-1766 -1764 0
-1766 -1765 0
1766 1764 1765 0
-1953 1249 0
-1953 -1766 0
1953 -1249 1766 0
-1954 -1249 0
-1954 1766 0
1954 1249 -1766 0
-1955 -1953 0
-1955 -1954 0
1955 1953 1954 0
1248 -16494 0
-1248 16494 0
-1762 -1349 0
-1762 -1758 0
1762 1349 1758 0
-1763 -1761 0
-1763 -1762 0
1763 1761 1762 0
-1950 1248 0
-1950 -1763 0
1950 -1248 1763 0
-1951 -1248 0
-1951 1763 0
1951 1248 -1763 0
-1952 -1950 0
-1952 -1951 0
1952 1950 1951 0
1247 -16493 0
-1247 16493 0
-1759 -1342 0
-1759 -1755 0
1759 1342 1755 0
-1760 -1758 0
-1760 -1759 0
1760 1758 1759 0
-1947 1247 0
-1947 -1760 0
1947 -1247 1760 0
-1948 -1247 0
-1948 1760 0
1948 1247 -1760 0
-1949 -1947 0
-1949 -1948 0
1949 1947 1948 0
1246 -16492 0
-1246 16492 0
-1756 -1335 0
-1756 -1752 0
1756 1335 1752 0
-1757 -1755 0
-1757 -1756 0
1757 1755 1756 0
-1944 1246 0
-1944 -1757 0
1944 -1246 1757 0
-1945 -1246 0
-1945 1757 0
1945 1246 -1757 0
-1946 -1944 0
-1946 -1945 0
1946 1944 1945 0
1245 -16491 0
-1245 16491 0
-1753 -1328 0
-1753 -1749 0
1753 1328 1749 0
-1754 -1752 0
-1754 -1753 0
1754 1752 1753 0
-1941 1245 0
-1941 -1754 0
1941 -1245 1754 0
-1942 -1245 0
-1942 1754 0
1942 1245 -1754 0
-1943 -1941 0
-1943 -1942 0
1943 1941 1942 0
1244 -16490 0
-1244 16490 0
-1750 -1321 0
-1750 -1746 0
1750 1321 1746 0
-1751 -1749 0
-1751 -1750 0
1751 1749 1750 0
-1938 1244 0
-1938 -1751 0
1938 -1244 1751 0
-1939 -1244 0
-1939 1751 0
1939 1244 -1751 0
-1940 -1938 0
-1940 -1939 0
1940 1938 1939 0
1242 -16488 0
-1242 16488 0
-1744 -129 0
-1744 -1308 0
1744 129 1308 0
-1745 -1743 0
-1745 -1744 0
1745 1743 1744 0
-1932 1242 0
-1932 -1745 0
1932 -1242 1745 0
-1933 -1242 0
-1933 1745 0
1933 1242 -1745 0
-1934 -1932 0
-1934 -1933 0
1934 1932 1933 0
1243 -16489 0
-1243 16489 0
-1747 -1314 0
-1747 -1743 0
1747 1314 1743 0
-1748 -1746 0
-1748 -1747 0
1748 1746 1747 0
-1935 1243 0
-1935 -1748 0
1935 -1243 1748 0
-1936 -1243 0
-1936 1748 0
1936 1243 -1748 0
-1937 -1935 0
-1937 -1936 0
1937 1935 1936 0
-2121 1934 0
-2121 1937 0
2121 -1934 -1937 0
-2122 1940 0
-2122 2121 0
2122 -1940 -2121 0
-2123 1943 0
-2123 2122 0
2123 -1943 -2122 0
-2124 1946 0
-2124 2123 0
2124 -1946 -2123 0
-2125 1949 0
-2125 2124 0
2125 -1949 -2124 0
-2126 1952 0
-2126 2125 0
2126 -1952 -2125 0
-2127 1955 0
-2127 2126 0
2127 -1955 -2126 0
-2128 1958 0
-2128 2127 0
2128 -1958 -2127 0
-2129 1961 0
-2129 2128 0
2129 -1961 -2128 0
-2130 1964 0
-2130 2129 0
2130 -1964 -2129 0
-2131 1967 0
-2131 2130 0
2131 -1967 -2130 0
-2132 1970 0
-2132 2131 0
2132 -1970 -2131 0
-2133 1973 0
-2133 2132 0
2133 -1973 -2132 0
-2134 1976 0
-2134 2133 0
2134 -1976 -2133 0
-2135 1979 0
-2135 2134 0
2135 -1979 -2134 0
-2136 1982 0
-2136 2135 0
2136 -1982 -2135 0
-2137 1985 0
-2137 2136 0
2137 -1985 -2136 0
-2138 1988 0
-2138 2137 0
2138 -1988 -2137 0
-2139 1991 0
-2139 2138 0
2139 -1991 -2138 0
-2140 1994 0
-2140 2139 0
2140 -1994 -2139 0
-2141 1997 0
-2141 2140 0
2141 -1997 -2140 0
-2142 2000 0
-2142 2141 0
2142 -2000 -2141 0
-2143 2003 0
-2143 2142 0
2143 -2003 -2142 0
-2144 2006 0
-2144 2143 0
2144 -2006 -2143 0
-2145 2009 0
-2145 2144 0
2145 -2009 -2144 0
-2146 2012 0
-2146 2145 0
2146 -2012 -2145 0
-2147 2015 0
-2147 2146 0
2147 -2015 -2146 0
-2148 2018 0
-2148 2147 0
2148 -2018 -2147 0
-2149 2021 0
-2149 2148 0
2149 -2021 -2148 0
-2150 2024 0
-2150 2149 0
2150 -2024 -2149 0
-2151 2027 0
-2151 2150 0
2151 -2027 -2150 0
-2152 2030 0
-2152 2151 0
2152 -2030 -2151 0
-2153 2033 0
-2153 2152 0
2153 -2033 -2152 0
-2154 2036 0
-2154 2153 0
2154 -2036 -2153 0
-2155 2039 0
-2155 2154 0
2155 -2039 -2154 0
-2156 2042 0
-2156 2155 0
2156 -2042 -2155 0
-2157 2045 0
-2157 2156 0
2157 -2045 -2156 0
-2158 2048 0
-2158 2157 0
2158 -2048 -2157 0
-2159 2051 0
-2159 2158 0
2159 -2051 -2158 0
-2160 2054 0
-2160 2159 0
2160 -2054 -2159 0
-2161 2057 0
-2161 2160 0
2161 -2057 -2160 0
-2162 2060 0
-2162 2161 0
2162 -2060 -2161 0
-2163 2063 0
-2163 2162 0
2163 -2063 -2162 0
-2164 2066 0
-2164 2163 0
2164 -2066 -2163 0
-2165 2069 0
-2165 2164 0
2165 -2069 -2164 0
-2166 2072 0
-2166 2165 0
2166 -2072 -2165 0
-2167 2075 0
-2167 2166 0
2167 -2075 -2166 0
-2168 2078 0
-2168 2167 0
2168 -2078 -2167 0
-2169 2081 0
-2169 2168 0
2169 -2081 -2168 0
-2170 2084 0
-2170 2169 0
2170 -2084 -2169 0
-2171 2087 0
-2171 2170 0
2171 -2087 -2170 0
-2172 2090 0
-2172 2171 0
2172 -2090 -2171 0
-2173 2093 0
-2173 2172 0
2173 -2093 -2172 0
-2174 2096 0
-2174 2173 0
2174 -2096 -2173 0
-2175 2099 0
-2175 2174 0
2175 -2099 -2174 0
-2176 2102 0
-2176 2175 0
2176 -2102 -2175 0
-2177 2105 0
-2177 2176 0
2177 -2105 -2176 0
-2178 2108 0
-2178 2177 0
2178 -2108 -2177 0
-2179 2111 0
-2179 2178 0
2179 -2111 -2178 0
-2180 2114 0
-2180 2179 0
2180 -2114 -2179 0
-2181 2117 0
-2181 2180 0
2181 -2117 -2180 0
-2182 2120 0
-2182 2181 0
2182 -2120 -2181 0
-2183 -1305 0
-2183 2182 0
2183 1305 -2182 0
-2184 799 0
-2184 -2183 0
2184 -799 2183 0
-2185 1241 0
-2185 -2184 0
2185 -1241 2184 0
-2372 -936 0
-2372 1304 0
2372 936 -1304 0
-2373 936 0
-2373 -1304 0
2373 -936 1304 0
-2374 -2372 0
-2374 -2373 0
2374 2372 2373 0
-2369 -935 0
-2369 1303 0
2369 935 -1303 0
-2370 935 0
-2370 -1303 0
2370 -935 1303 0
-2371 -2369 0
-2371 -2370 0
2371 2369 2370 0
-2366 -934 0
-2366 1302 0
2366 934 -1302 0
-2367 934 0
-2367 -1302 0
2367 -934 1302 0
-2368 -2366 0
-2368 -2367 0
2368 2366 2367 0
-2363 -933 0
-2363 1301 0
2363 933 -1301 0
-2364 933 0
-2364 -1301 0
2364 -933 1301 0
-2365 -2363 0
-2365 -2364 0
2365 2363 2364 0
-2360 -932 0
-2360 1300 0
2360 932 -1300 0
-2361 932 0
-2361 -1300 0
2361 -932 1300 0
-2362 -2360 0
-2362 -2361 0
2362 2360 2361 0
-2357 -931 0
-2357 1299 0
2357 931 -1299 0
-2358 931 0
-2358 -1299 0
2358 -931 1299 0
-2359 -2357 0
-2359 -2358 0
2359 2357 2358 0
-2354 -930 0
-2354 1298 0
2354 930 -1298 0
-2355 930 0
-2355 -1298 0
2355 -930 1298 0
-2356 -2354 0
-2356 -2355 0
2356 2354 2355 0
-2351 -929 0
-2351 1297 0
2351 929 -1297 0
-2352 929 0
-2352 -1297 0
2352 -929 1297 0
-2353 -2351 0
-2353 -2352 0
2353 2351 2352 0
-2348 -928 0
-2348 1296 0
2348 928 -1296 0
-2349 928 0
-2349 -1296 0
2349 -928 1296 0
-2350 -2348 0
-2350 -2349 0
2350 2348 2349 0
-2345 -927 0
-2345 1295 0
2345 927 -1295 0
-2346 927 0
-2346 -1295 0
2346 -927 1295 0
-2347 -2345 0
-2347 -2346 0
2347 2345 2346 0
-2342 -926 0
-2342 1294 0
2342 926 -1294 0
-2343 926 0
-2343 -1294 0
2343 -926 1294 0
-2344 -2342 0
-2344 -2343 0
2344 2342 2343 0
-2339 -925 0
-2339 1293 0
2339 925 -1293 0
-2340 925 0
-2340 -1293 0
2340 -925 1293 0
-2341 -2339 0
-2341 -2340 0
2341 2339 2340 0
-2336 -924 0
-2336 1292 0
2336 924 -1292 0
-2337 924 0
-2337 -1292 0
2337 -924 1292 0
-2338 -2336 0
-2338 -2337 0
2338 2336 2337 0
-2333 -923 0
-2333 1291 0
2333 923 -1291 0
-2334 923 0
-2334 -1291 0
2334 -923 1291 0
-2335 -2333 0
-2335 -2334 0
2335 2333 2334 0
-2330 -922 0
-2330 1290 0
2330 922 -1290 0
-2331 922 0
-2331 -1290 0
2331 -922 1290 0
-2332 -2330 0
-2332 -2331 0
2332 2330 2331 0
-2327 -921 0
-2327 1289 0
2327 921 -1289 0
-2328 921 0
-2328 -1289 0
2328 -921 1289 0
-2329 -2327 0
-2329 -2328 0
2329 2327 2328 0
-2324 -920 0
-2324 1288 0
2324 920 -1288 0
-2325 920 0
-2325 -1288 0
2325 -920 1288 0
-2326 -2324 0
-2326 -2325 0
2326 2324 2325 0
-2321 -919 0
-2321 1287 0
2321 919 -1287 0
-2322 919 0
-2322 -1287 0
2322 -919 1287 0
-2323 -2321 0
-2323 -2322 0
2323 2321 2322 0
-2318 -918 0
-2318 1286 0
2318 918 -1286 0
-2319 918 0
-2319 -1286 0
2319 -918 1286 0
-2320 -2318 0
-2320 -2319 0
2320 2318 2319 0
-2315 -917 0
-2315 1285 0
2315 917 -1285 0
-2316 917 0
-2316 -1285 0
2316 -917 1285 0
-2317 -2315 0
-2317 -2316 0
2317 2315 2316 0
-2312 -916 0
-2312 1284 0
2312 916 -1284 0
-2313 916 0
-2313 -1284 0
2313 -916 1284 0
-2314 -2312 0
-2314 -2313 0
2314 2312 2313 0
-2309 -915 0
-2309 1283 0
2309 915 -1283 0
-2310 915 0
-2310 -1283 0
2310 -915 1283 0
-2311 -2309 0
-2311 -2310 0
2311 2309 2310 0
-2306 -914 0
-2306 1282 0
2306 914 -1282 0
-2307 914 0
-2307 -1282 0
2307 -914 1282 0
-2308 -2306 0
-2308 -2307 0
2308 2306 2307 0
-2303 -913 0
-2303 1281 0
2303 913 -1281 0
-2304 913 0
-2304 -1281 0
2304 -913 1281 0
-2305 -2303 0
-2305 -2304 0
2305 2303 2304 0
-2300 -912 0
-2300 1280 0
2300 912 -1280 0
-2301 912 0
-2301 -1280 0
2301 -912 1280 0
-2302 -2300 0
-2302 -2301 0
2302 2300 2301 0
-2297 -911 0
-2297 1279 0
2297 911 -1279 0
-2298 911 0
-2298 -1279 0
2298 -911 1279 0
-2299 -2297 0
-2299 -2298 0
2299 2297 2298 0
-2294 -910 0
-2294 1278 0
2294 910 -1278 0
-2295 910 0
-2295 -1278 0
2295 -910 1278 0
-2296 -2294 0
-2296 -2295 0
2296 2294 2295 0
-2291 -909 0
-2291 1277 0
2291 909 -1277 0
-2292 909 0
-2292 -1277 0
2292 -909 1277 0
-2293 -2291 0
-2293 -2292 0
2293 2291 2292 0
-2288 -908 0
-2288 1276 0
2288 908 -1276 0
-2289 908 0
-2289 -1276 0
2289 -908 1276 0
-2290 -2288 0
-2290 -2289 0
2290 2288 2289 0
-2285 -907 0
-2285 1275 0
2285 907 -1275 0
-2286 907 0
-2286 -1275 0
2286 -907 1275 0
-2287 -2285 0
-2287 -2286 0
2287 2285 2286 0
-2282 -906 0
-2282 1274 0
2282 906 -1274 0
-2283 906 0
-2283 -1274 0
2283 -906 1274 0
-2284 -2282 0
-2284 -2283 0
2284 2282 2283 0
-2279 -905 0
-2279 1273 0
2279 905 -1273 0
-2280 905 0
-2280 -1273 0
2280 -905 1273 0
-2281 -2279 0
-2281 -2280 0
2281 2279 2280 0
-2276 -904 0
-2276 1272 0
2276 904 -1272 0
-2277 904 0
-2277 -1272 0
2277 -904 1272 0
-2278 -2276 0
-2278 -2277 0
2278 2276 2277 0
-2273 -903 0
-2273 1271 0
2273 903 -1271 0
-2274 903 0
-2274 -1271 0
2274 -903 1271 0
-2275 -2273 0
-2275 -2274 0
2275 2273 2274 0
-2270 -902 0
-2270 1270 0
2270 902 -1270 0
-2271 902 0
-2271 -1270 0
2271 -902 1270 0
-2272 -2270 0
-2272 -2271 0
2272 2270 2271 0
-2267 -901 0
-2267 1269 0
2267 901 -1269 0
-2268 901 0
-2268 -1269 0
2268 -901 1269 0
-2269 -2267 0
-2269 -2268 0
2269 2267 2268 0
-2264 -900 0
-2264 1268 0
2264 900 -1268 0
-2265 900 0
-2265 -1268 0
2265 -900 1268 0
-2266 -2264 0
-2266 -2265 0
2266 2264 2265 0
-2261 -899 0
-2261 1267 0
2261 899 -1267 0
-2262 899 0
-2262 -1267 0
2262 -899 1267 0
-2263 -2261 0
-2263 -2262 0
2263 2261 2262 0
-2258 -898 0
-2258 1266 0
2258 898 -1266 0
-2259 898 0
-2259 -1266 0
2259 -898 1266 0
-2260 -2258 0
-2260 -2259 0
2260 2258 2259 0
-2255 -897 0
-2255 1265 0
2255 897 -1265 0
-2256 897 0
-2256 -1265 0
2256 -897 1265 0
-2257 -2255 0
-2257 -2256 0
2257 2255 2256 0
-2252 -896 0
-2252 1264 0
2252 896 -1264 0
-2253 896 0
-2253 -1264 0
2253 -896 1264 0
-2254 -2252 0
-2254 -2253 0
2254 2252 2253 0
-2249 -895 0
-2249 1263 0
2249 895 -1263 0
-2250 895 0
-2250 -1263 0
2250 -895 1263 0
-2251 -2249 0
-2251 -2250 0
2251 2249 2250 0
-2246 -894 0
-2246 1262 0
2246 894 -1262 0
-2247 894 0
-2247 -1262 0
2247 -894 1262 0
-2248 -2246 0
-2248 -2247 0
2248 2246 2247 0
-2243 -893 0
-2243 1261 0
2243 893 -1261 0
-2244 893 0
-2244 -1261 0
2244 -893 1261 0
-2245 -2243 0
-2245 -2244 0
2245 2243 2244 0
-2240 -892 0
-2240 1260 0
2240 892 -1260 0
-2241 892 0
-2241 -1260 0
2241 -892 1260 0
-2242 -2240 0
-2242 -2241 0
2242 2240 2241 0
-2237 -891 0
-2237 1259 0
2237 891 -1259 0
-2238 891 0
-2238 -1259 0
2238 -891 1259 0
-2239 -2237 0
-2239 -2238 0
2239 2237 2238 0
-2234 -890 0
-2234 1258 0
2234 890 -1258 0
-2235 890 0
-2235 -1258 0
2235 -890 1258 0
-2236 -2234 0
-2236 -2235 0
2236 2234 2235 0
-2231 -889 0
-2231 1257 0
2231 889 -1257 0
-2232 889 0
-2232 -1257 0
2232 -889 1257 0
-2233 -2231 0
-2233 -2232 0
2233 2231 2232 0
-2228 -888 0
-2228 1256 0
2228 888 -1256 0
-2229 888 0
-2229 -1256 0
2229 -888 1256 0
-2230 -2228 0
-2230 -2229 0
2230 2228 2229 0
-2225 -887 0
-2225 1255 0
2225 887 -1255 0
-2226 887 0
-2226 -1255 0
2226 -887 1255 0
-2227 -2225 0
-2227 -2226 0
2227 2225 2226 0
-2222 -886 0
-2222 1254 0
2222 886 -1254 0
-2223 886 0
-2223 -1254 0
2223 -886 1254 0
-2224 -2222 0
-2224 -2223 0
2224 2222 2223 0
-2219 -885 0
-2219 1253 0
2219 885 -1253 0
-2220 885 0
-2220 -1253 0
2220 -885 1253 0
-2221 -2219 0
-2221 -2220 0
2221 2219 2220 0
-2216 -884 0
-2216 1252 0
2216 884 -1252 0
-2217 884 0
-2217 -1252 0
2217 -884 1252 0
-2218 -2216 0
-2218 -2217 0
2218 2216 2217 0
-2213 -883 0
-2213 1251 0
2213 883 -1251 0
-2214 883 0
-2214 -1251 0
2214 -883 1251 0
-2215 -2213 0
-2215 -2214 0
2215 2213 2214 0
-2210 -882 0
-2210 1250 0
2210 882 -1250 0
-2211 882 0
-2211 -1250 0
2211 -882 1250 0
-2212 -2210 0
-2212 -2211 0
2212 2210 2211 0
-2207 -881 0
-2207 1249 0
2207 881 -1249 0
-2208 881 0
-2208 -1249 0
2208 -881 1249 0
-2209 -2207 0
-2209 -2208 0
2209 2207 2208 0
-2204 -880 0
-2204 1248 0
2204 880 -1248 0
-2205 880 0
-2205 -1248 0
2205 -880 1248 0
-2206 -2204 0
-2206 -2205 0
2206 2204 2205 0
-2201 -879 0
-2201 1247 0
2201 879 -1247 0
-2202 879 0
-2202 -1247 0
2202 -879 1247 0
-2203 -2201 0
-2203 -2202 0
2203 2201 2202 0
-2198 -878 0
-2198 1246 0
2198 878 -1246 0
-2199 878 0
-2199 -1246 0
2199 -878 1246 0
-2200 -2198 0
-2200 -2199 0
2200 2198 2199 0
-2195 -877 0
-2195 1245 0
2195 877 -1245 0
-2196 877 0
-2196 -1245 0
2196 -877 1245 0
-2197 -2195 0
-2197 -2196 0
2197 2195 2196 0
-2192 -876 0
-2192 1244 0
2192 876 -1244 0
-2193 876 0
-2193 -1244 0
2193 -876 1244 0
-2194 -2192 0
-2194 -2193 0
2194 2192 2193 0
-2186 -874 0
-2186 1242 0
2186 874 -1242 0
-2187 874 0
-2187 -1242 0
2187 -874 1242 0
-2188 -2186 0
-2188 -2187 0
2188 2186 2187 0
-2189 -875 0
-2189 1243 0
2189 875 -1243 0
-2190 875 0
-2190 -1243 0
2190 -875 1243 0
-2191 -2189 0
-2191 -2190 0
2191 2189 2190 0
-2375 2188 0
-2375 2191 0
2375 -2188 -2191 0
-2376 2194 0
-2376 2375 0
2376 -2194 -2375 0
-2377 2197 0
-2377 2376 0
2377 -2197 -2376 0
-2378 2200 0
-2378 2377 0
2378 -2200 -2377 0
-2379 2203 0
-2379 2378 0
2379 -2203 -2378 0
-2380 2206 0
-2380 2379 0
2380 -2206 -2379 0
-2381 2209 0
-2381 2380 0
2381 -2209 -2380 0
-2382 2212 0
-2382 2381 0
2382 -2212 -2381 0
-2383 2215 0
-2383 2382 0
2383 -2215 -2382 0
-2384 2218 0
-2384 2383 0
2384 -2218 -2383 0
-2385 2221 0
-2385 2384 0
2385 -2221 -2384 0
-2386 2224 0
-2386 2385 0
2386 -2224 -2385 0
-2387 2227 0
-2387 2386 0
2387 -2227 -2386 0
-2388 2230 0
-2388 2387 0
2388 -2230 -2387 0
-2389 2233 0
-2389 2388 0
2389 -2233 -2388 0
-2390 2236 0
-2390 2389 0
2390 -2236 -2389 0
-2391 2239 0
-2391 2390 0
2391 -2239 -2390 0
-2392 2242 0
-2392 2391 0
2392 -2242 -2391 0
-2393 2245 0
-2393 2392 0
2393 -2245 -2392 0
-2394 2248 0
-2394 2393 0
2394 -2248 -2393 0
-2395 2251 0
-2395 2394 0
2395 -2251 -2394 0
-2396 2254 0
-2396 2395 0
2396 -2254 -2395 0
-2397 2257 0
-2397 2396 0
2397 -2257 -2396 0
-2398 2260 0
-2398 2397 0
2398 -2260 -2397 0
-2399 2263 0
-2399 2398 0
2399 -2263 -2398 0
-2400 2266 0
-2400 2399 0
2400 -2266 -2399 0
-2401 2269 0
-2401 2400 0
2401 -2269 -2400 0
-2402 2272 0
-2402 2401 0
2402 -2272 -2401 0
-2403 2275 0
-2403 2402 0
2403 -2275 -2402 0
-2404 2278 0
-2404 2403 0
2404 -2278 -2403 0
-2405 2281 0
-2405 2404 0
2405 -2281 -2404 0
-2406 2284 0
-2406 2405 0
2406 -2284 -2405 0
-2407 2287 0
-2407 2406 0
2407 -2287 -2406 0
-2408 2290 0
-2408 2407 0
2408 -2290 -2407 0
-2409 2293 0
-2409 2408 0
2409 -2293 -2408 0
-2410 2296 0
-2410 2409 0
2410 -2296 -2409 0
-2411 2299 0
-2411 2410 0
2411 -2299 -2410 0
-2412 2302 0
-2412 2411 0
2412 -2302 -2411 0
-2413 2305 0
-2413 2412 0
2413 -2305 -2412 0
-2414 2308 0
-2414 2413 0
2414 -2308 -2413 0
-2415 2311 0
-2415 2414 0
2415 -2311 -2414 0
-2416 2314 0
-2416 2415 0
2416 -2314 -2415 0
-2417 2317 0
-2417 2416 0
2417 -2317 -2416 0
-2418 2320 0
-2418 2417 0
2418 -2320 -2417 0
-2419 2323 0
-2419 2418 0
2419 -2323 -2418 0
-2420 2326 0
-2420 2419 0
2420 -2326 -2419 0
-2421 2329 0
-2421 2420 0
2421 -2329 -2420 0
-2422 2332 0
-2422 2421 0
2422 -2332 -2421 0
-2423 2335 0
-2423 2422 0
2423 -2335 -2422 0
-2424 2338 0
-2424 2423 0
2424 -2338 -2423 0
-2425 2341 0
-2425 2424 0
2425 -2341 -2424 0
-2426 2344 0
-2426 2425 0
2426 -2344 -2425 0
-2427 2347 0
-2427 2426 0
2427 -2347 -2426 0
-2428 2350 0
-2428 2427 0
2428 -2350 -2427 0
-2429 2353 0
-2429 2428 0
2429 -2353 -2428 0
-2430 2356 0
-2430 2429 0
2430 -2356 -2429 0
-2431 2359 0
-2431 2430 0
2431 -2359 -2430 0
-2432 2362 0
-2432 2431 0
2432 -2362 -2431 0
-2433 2365 0
-2433 2432 0
2433 -2365 -2432 0
-2434 2368 0
-2434 2433 0
2434 -2368 -2433 0
-2435 2371 0
-2435 2434 0
2435 -2371 -2434 0
-2436 2374 0
-2436 2435 0
2436 -2374 -2435 0
-2437 -1305 0
-2437 2436 0
2437 1305 -2436 0
-2438 -799 0
-2438 -2437 0
2438 799 2437 0
-2439 2185 0
-2439 -2438 0
2439 -2185 2438 0
2440 -16552 0
-2440 16552 0
-2441 -398 0
-2441 2440 0
2441 398 -2440 0
-2442 398 0
-2442 -2440 0
2442 -398 2440 0
-2443 -2441 0
-2443 -2442 0
2443 2441 2442 0
-2444 2 0
-2444 -2443 0
2444 -2 2443 0
-2445 2439 0
-2445 -2444 0
2445 -2439 2444 0
-2446 -4 0
-2446 2440 0
2446 4 -2440 0
-2447 4 0
-2447 -2440 0
2447 -4 2440 0
-2448 -2446 0
-2448 -2447 0
2448 2446 2447 0
-2449 -2 0
-2449 -2448 0
2449 2 2448 0
-2450 2445 0
-2450 -2449 0
2450 -2445 2449 0
2451 -16553 0
-2451 16553 0
-2452 -1745 0
-2452 2451 0
2452 1745 -2451 0
-2453 1745 0
-2453 -2451 0
2453 -1745 2451 0
-2454 -2452 0
-2454 -2453 0
2454 2452 2453 0
-2455 799 0
-2455 -2454 0
2455 -799 2454 0
-2456 2450 0
-2456 -2455 0
2456 -2450 2455 0
-2457 -2440 0
-2457 2451 0
2457 2440 -2451 0
-2458 2440 0
-2458 -2451 0
2458 -2440 2451 0
-2459 -2457 0
-2459 -2458 0
2459 2457 2458 0
-2460 -799 0
-2460 -2459 0
2460 799 2459 0
-2461 2456 0
-2461 -2460 0
2461 -2456 2460 0
2471 -16563 0
-2471 16563 0
2470 -16562 0
-2470 16562 0
2469 -16561 0
-2469 16561 0
2468 -16560 0
-2468 16560 0
2467 -16559 0
-2467 16559 0
2466 -16558 0
-2466 16558 0
2465 -16557 0
-2465 16557 0
2464 -16556 0
-2464 16556 0
2462 -16554 0
-2462 16554 0
2463 -16555 0
-2463 16555 0
-2472 2462 0
-2472 -2463 0
2472 -2462 2463 0
-2473 -2464 0
-2473 2472 0
2473 2464 -2472 0
-2474 -2465 0
-2474 2473 0
2474 2465 -2473 0
-2475 -2466 0
-2475 2474 0
2475 2466 -2474 0
-2476 -2467 0
-2476 2475 0
2476 2467 -2475 0
-2477 -2468 0
-2477 2476 0
2477 2468 -2476 0
-2478 -2469 0
-2478 2477 0
2478 2469 -2477 0
-2479 -2470 0
-2479 2478 0
2479 2470 -2478 0
-2480 -2471 0
-2480 2479 0
2480 2471 -2479 0
-2481 2451 0
-2481 -2480 0
2481 -2451 2480 0
-2482 2461 0
-2482 -2481 0
2482 -2461 2481 0
-2483 -2462 0
-2483 -2463 0
2483 2462 2463 0
-2484 -2464 0
-2484 2483 0
2484 2464 -2483 0
-2485 -2465 0
-2485 2484 0
2485 2465 -2484 0
-2486 -2466 0
-2486 2485 0
2486 2466 -2485 0
-2487 -2467 0
-2487 2486 0
2487 2467 -2486 0
-2488 -2468 0
-2488 2487 0
2488 2468 -2487 0
-2489 -2469 0
-2489 2488 0
2489 2469 -2488 0
-2490 -2470 0
-2490 2489 0
2490 2470 -2489 0
-2491 -2471 0
-2491 2490 0
2491 2471 -2490 0
-2492 -2451 0
-2492 -2491 0
2492 2451 2491 0
-2493 2482 0
-2493 -2492 0
2493 -2482 2492 0
2556 -16626 0
-2556 16626 0
2555 -16625 0
-2555 16625 0
-2740 -1931 0
-2740 2555 0
2740 1931 -2555 0
-2741 1931 0
-2741 -2555 0
2741 -1931 2555 0
-2742 -2740 0
-2742 -2741 0
2742 2740 2741 0
2554 -16624 0
-2554 16624 0
-2737 -1928 0
-2737 2554 0
2737 1928 -2554 0
-2738 1928 0
-2738 -2554 0
2738 -1928 2554 0
-2739 -2737 0
-2739 -2738 0
2739 2737 2738 0
2553 -16623 0
-2553 16623 0
-2734 -1925 0
-2734 2553 0
2734 1925 -2553 0
-2735 1925 0
-2735 -2553 0
2735 -1925 2553 0
-2736 -2734 0
-2736 -2735 0
2736 2734 2735 0
2552 -16622 0
-2552 16622 0
-2731 -1922 0
-2731 2552 0
2731 1922 -2552 0
-2732 1922 0
-2732 -2552 0
2732 -1922 2552 0
-2733 -2731 0
-2733 -2732 0
2733 2731 2732 0
2551 -16621 0
-2551 16621 0
-2728 -1919 0
-2728 2551 0
2728 1919 -2551 0
-2729 1919 0
-2729 -2551 0
2729 -1919 2551 0
-2730 -2728 0
-2730 -2729 0
2730 2728 2729 0
2550 -16620 0
-2550 16620 0
-2725 -1916 0
-2725 2550 0
2725 1916 -2550 0
-2726 1916 0
-2726 -2550 0
2726 -1916 2550 0
-2727 -2725 0
-2727 -2726 0
2727 2725 2726 0
2549 -16619 0
-2549 16619 0
-2722 -1913 0
-2722 2549 0
2722 1913 -2549 0
-2723 1913 0
-2723 -2549 0
2723 -1913 2549 0
-2724 -2722 0
-2724 -2723 0
2724 2722 2723 0
2548 -16618 0
-2548 16618 0
-2719 -1910 0
-2719 2548 0
2719 1910 -2548 0
-2720 1910 0
-2720 -2548 0
2720 -1910 2548 0
-2721 -2719 0
-2721 -2720 0
2721 2719 2720 0
2547 -16617 0
-2547 16617 0
-2716 -1907 0
-2716 2547 0
2716 1907 -2547 0
-2717 1907 0
-2717 -2547 0
2717 -1907 2547 0
-2718 -2716 0
-2718 -2717 0
2718 2716 2717 0
2546 -16616 0
-2546 16616 0
-2713 -1904 0
-2713 2546 0
2713 1904 -2546 0
-2714 1904 0
-2714 -2546 0
2714 -1904 2546 0
-2715 -2713 0
-2715 -2714 0
2715 2713 2714 0
2545 -16615 0
-2545 16615 0
-2710 -1901 0
-2710 2545 0
2710 1901 -2545 0
-2711 1901 0
-2711 -2545 0
2711 -1901 2545 0
-2712 -2710 0
-2712 -2711 0
2712 2710 2711 0
2544 -16614 0
-2544 16614 0
-2707 -1898 0
-2707 2544 0
2707 1898 -2544 0
-2708 1898 0
-2708 -2544 0
2708 -1898 2544 0
-2709 -2707 0
-2709 -2708 0
2709 2707 2708 0
2543 -16613 0
-2543 16613 0
-2704 -1895 0
-2704 2543 0
2704 1895 -2543 0
-2705 1895 0
-2705 -2543 0
2705 -1895 2543 0
-2706 -2704 0
-2706 -2705 0
2706 2704 2705 0
2542 -16612 0
-2542 16612 0
-2701 -1892 0
-2701 2542 0
2701 1892 -2542 0
-2702 1892 0
-2702 -2542 0
2702 -1892 2542 0
-2703 -2701 0
-2703 -2702 0
2703 2701 2702 0
2541 -16611 0
-2541 16611 0
-2698 -1889 0
-2698 2541 0
2698 1889 -2541 0
-2699 1889 0
-2699 -2541 0
2699 -1889 2541 0
-2700 -2698 0
-2700 -2699 0
2700 2698 2699 0
2540 -16610 0
-2540 16610 0
-2695 -1886 0
-2695 2540 0
2695 1886 -2540 0
-2696 1886 0
-2696 -2540 0
2696 -1886 2540 0
-2697 -2695 0
-2697 -2696 0
2697 2695 2696 0
2539 -16609 0
-2539 16609 0
-2692 -1883 0
-2692 2539 0
2692 1883 -2539 0
-2693 1883 0
-2693 -2539 0
2693 -1883 2539 0
-2694 -2692 0
-2694 -2693 0
2694 2692 2693 0
2538 -16608 0
-2538 16608 0
-2689 -1880 0
-2689 2538 0
2689 1880 -2538 0
-2690 1880 0
-2690 -2538 0
2690 -1880 2538 0
-2691 -2689 0
-2691 -2690 0
2691 2689 2690 0
2537 -16607 0
-2537 16607 0
-2686 -1877 0
-2686 2537 0
2686 1877 -2537 0
-2687 1877 0
-2687 -2537 0
2687 -1877 2537 0
-2688 -2686 0
-2688 -2687 0
2688 2686 2687 0
2536 -16606 0
-2536 16606 0
-2683 -1874 0
-2683 2536 0
2683 1874 -2536 0
-2684 1874 0
-2684 -2536 0
2684 -1874 2536 0
-2685 -2683 0
-2685 -2684 0
2685 2683 2684 0
2535 -16605 0
-2535 16605 0
-2680 -1871 0
-2680 2535 0
2680 1871 -2535 0
-2681 1871 0
-2681 -2535 0
2681 -1871 2535 0
-2682 -2680 0
-2682 -2681 0
2682 2680 2681 0
2534 -16604 0
-2534 16604 0
-2677 -1868 0
-2677 2534 0
2677 1868 -2534 0
-2678 1868 0
-2678 -2534 0
2678 -1868 2534 0
-2679 -2677 0
-2679 -2678 0
2679 2677 2678 0
2533 -16603 0
-2533 16603 0
-2674 -1865 0
-2674 2533 0
2674 1865 -2533 0
-2675 1865 0
-2675 -2533 0
2675 -1865 2533 0
-2676 -2674 0
-2676 -2675 0
2676 2674 2675 0
2532 -16602 0
-2532 16602 0
-2671 -1862 0
-2671 2532 0
2671 1862 -2532 0
-2672 1862 0
-2672 -2532 0
2672 -1862 2532 0
-2673 -2671 0
-2673 -2672 0
2673 2671 2672 0
2531 -16601 0
-2531 16601 0
-2668 -1859 0
-2668 2531 0
2668 1859 -2531 0
-2669 1859 0
-2669 -2531 0
2669 -1859 2531 0
-2670 -2668 0
-2670 -2669 0
2670 2668 2669 0
2530 -16600 0
-2530 16600 0
-2665 -1856 0
-2665 2530 0
2665 1856 -2530 0
-2666 1856 0
-2666 -2530 0
2666 -1856 2530 0
-2667 -2665 0
-2667 -2666 0
2667 2665 2666 0
2529 -16599 0
-2529 16599 0
-2662 -1853 0
-2662 2529 0
2662 1853 -2529 0
-2663 1853 0
-2663 -2529 0
2663 -1853 2529 0
-2664 -2662 0
-2664 -2663 0
2664 2662 2663 0
2528 -16598 0
-2528 16598 0
-2659 -1850 0
-2659 2528 0
2659 1850 -2528 0
-2660 1850 0
-2660 -2528 0
2660 -1850 2528 0
-2661 -2659 0
-2661 -2660 0
2661 2659 2660 0
2527 -16597 0
-2527 16597 0
-2656 -1847 0
-2656 2527 0
2656 1847 -2527 0
-2657 1847 0
-2657 -2527 0
2657 -1847 2527 0
-2658 -2656 0
-2658 -2657 0
2658 2656 2657 0
2526 -16596 0
-2526 16596 0
-2653 -1844 0
-2653 2526 0
2653 1844 -2526 0
-2654 1844 0
-2654 -2526 0
2654 -1844 2526 0
-2655 -2653 0
-2655 -2654 0
2655 2653 2654 0
2525 -16595 0
-2525 16595 0
-2650 -1841 0
-2650 2525 0
2650 1841 -2525 0
-2651 1841 0
-2651 -2525 0
2651 -1841 2525 0
-2652 -2650 0
-2652 -2651 0
2652 2650 2651 0
2524 -16594 0
-2524 16594 0
-2647 -1838 0
-2647 2524 0
2647 1838 -2524 0
-2648 1838 0
-2648 -2524 0
2648 -1838 2524 0
-2649 -2647 0
-2649 -2648 0
2649 2647 2648 0
2523 -16593 0
-2523 16593 0
-2644 -1835 0
-2644 2523 0
2644 1835 -2523 0
-2645 1835 0
-2645 -2523 0
2645 -1835 2523 0
-2646 -2644 0
-2646 -2645 0
2646 2644 2645 0
2522 -16592 0
-2522 16592 0
-2641 -1832 0
-2641 2522 0
2641 1832 -2522 0
-2642 1832 0
-2642 -2522 0
2642 -1832 2522 0
-2643 -2641 0
-2643 -2642 0
2643 2641 2642 0
2521 -16591 0
-2521 16591 0
-2638 -1829 0
-2638 2521 0
2638 1829 -2521 0
-2639 1829 0
-2639 -2521 0
2639 -1829 2521 0
-2640 -2638 0
-2640 -2639 0
2640 2638 2639 0
2520 -16590 0
-2520 16590 0
-2635 -1826 0
-2635 2520 0
2635 1826 -2520 0
-2636 1826 0
-2636 -2520 0
2636 -1826 2520 0
-2637 -2635 0
-2637 -2636 0
2637 2635 2636 0
2519 -16589 0
-2519 16589 0
-2632 -1823 0
-2632 2519 0
2632 1823 -2519 0
-2633 1823 0
-2633 -2519 0
2633 -1823 2519 0
-2634 -2632 0
-2634 -2633 0
2634 2632 2633 0
2518 -16588 0
-2518 16588 0
-2629 -1820 0
-2629 2518 0
2629 1820 -2518 0
-2630 1820 0
-2630 -2518 0
2630 -1820 2518 0
-2631 -2629 0
-2631 -2630 0
2631 2629 2630 0
2517 -16587 0
-2517 16587 0
-2626 -1817 0
-2626 2517 0
2626 1817 -2517 0
-2627 1817 0
-2627 -2517 0
2627 -1817 2517 0
-2628 -2626 0
-2628 -2627 0
2628 2626 2627 0
2516 -16586 0
-2516 16586 0
-2623 -1814 0
-2623 2516 0
2623 1814 -2516 0
-2624 1814 0
-2624 -2516 0
2624 -1814 2516 0
-2625 -2623 0
-2625 -2624 0
2625 2623 2624 0
2515 -16585 0
-2515 16585 0
-2620 -1811 0
-2620 2515 0
2620 1811 -2515 0
-2621 1811 0
-2621 -2515 0
2621 -1811 2515 0
-2622 -2620 0
-2622 -2621 0
2622 2620 2621 0
2514 -16584 0
-2514 16584 0
-2617 -1808 0
-2617 2514 0
2617 1808 -2514 0
-2618 1808 0
-2618 -2514 0
2618 -1808 2514 0
-2619 -2617 0
-2619 -2618 0
2619 2617 2618 0
2513 -16583 0
-2513 16583 0
-2614 -1805 0
-2614 2513 0
2614 1805 -2513 0
-2615 1805 0
-2615 -2513 0
2615 -1805 2513 0
-2616 -2614 0
-2616 -2615 0
2616 2614 2615 0
2512 -16582 0
-2512 16582 0
-2611 -1802 0
-2611 2512 0
2611 1802 -2512 0
-2612 1802 0
-2612 -2512 0
2612 -1802 2512 0
-2613 -2611 0
-2613 -2612 0
2613 2611 2612 0
2511 -16581 0
-2511 16581 0
-2608 -1799 0
-2608 2511 0
2608 1799 -2511 0
-2609 1799 0
-2609 -2511 0
2609 -1799 2511 0
-2610 -2608 0
-2610 -2609 0
2610 2608 2609 0
2510 -16580 0
-2510 16580 0
-2605 -1796 0
-2605 2510 0
2605 1796 -2510 0
-2606 1796 0
-2606 -2510 0
2606 -1796 2510 0
-2607 -2605 0
-2607 -2606 0
2607 2605 2606 0
2509 -16579 0
-2509 16579 0
-2602 -1793 0
-2602 2509 0
2602 1793 -2509 0
-2603 1793 0
-2603 -2509 0
2603 -1793 2509 0
-2604 -2602 0
-2604 -2603 0
2604 2602 2603 0
2508 -16578 0
-2508 16578 0
-2599 -1790 0
-2599 2508 0
2599 1790 -2508 0
-2600 1790 0
-2600 -2508 0
2600 -1790 2508 0
-2601 -2599 0
-2601 -2600 0
2601 2599 2600 0
2507 -16577 0
-2507 16577 0
-2596 -1787 0
-2596 2507 0
2596 1787 -2507 0
-2597 1787 0
-2597 -2507 0
2597 -1787 2507 0
-2598 -2596 0
-2598 -2597 0
2598 2596 2597 0
2506 -16576 0
-2506 16576 0
-2593 -1784 0
-2593 2506 0
2593 1784 -2506 0
-2594 1784 0
-2594 -2506 0
2594 -1784 2506 0
-2595 -2593 0
-2595 -2594 0
2595 2593 2594 0
2505 -16575 0
-2505 16575 0
-2590 -1781 0
-2590 2505 0
2590 1781 -2505 0
-2591 1781 0
-2591 -2505 0
2591 -1781 2505 0
-2592 -2590 0
-2592 -2591 0
2592 2590 2591 0
2504 -16574 0
-2504 16574 0
-2587 -1778 0
-2587 2504 0
2587 1778 -2504 0
-2588 1778 0
-2588 -2504 0
2588 -1778 2504 0
-2589 -2587 0
-2589 -2588 0
2589 2587 2588 0
2503 -16573 0
-2503 16573 0
-2584 -1775 0
-2584 2503 0
2584 1775 -2503 0
-2585 1775 0
-2585 -2503 0
2585 -1775 2503 0
-2586 -2584 0
-2586 -2585 0
2586 2584 2585 0
2502 -16572 0
-2502 16572 0
-2581 -1772 0
-2581 2502 0
2581 1772 -2502 0
-2582 1772 0
-2582 -2502 0
2582 -1772 2502 0
-2583 -2581 0
-2583 -2582 0
2583 2581 2582 0
2501 -16571 0
-2501 16571 0
-2578 -1769 0
-2578 2501 0
2578 1769 -2501 0
-2579 1769 0
-2579 -2501 0
2579 -1769 2501 0
-2580 -2578 0
-2580 -2579 0
2580 2578 2579 0
2500 -16570 0
-2500 16570 0
-2575 -1766 0
-2575 2500 0
2575 1766 -2500 0
-2576 1766 0
-2576 -2500 0
2576 -1766 2500 0
-2577 -2575 0
-2577 -2576 0
2577 2575 2576 0
2499 -16569 0
-2499 16569 0
-2572 -1763 0
-2572 2499 0
2572 1763 -2499 0
-2573 1763 0
-2573 -2499 0
2573 -1763 2499 0
-2574 -2572 0
-2574 -2573 0
2574 2572 2573 0
2498 -16568 0
-2498 16568 0
-2569 -1760 0
-2569 2498 0
2569 1760 -2498 0
-2570 1760 0
-2570 -2498 0
2570 -1760 2498 0
-2571 -2569 0
-2571 -2570 0
2571 2569 2570 0
2497 -16567 0
-2497 16567 0
-2566 -1757 0
-2566 2497 0
2566 1757 -2497 0
-2567 1757 0
-2567 -2497 0
2567 -1757 2497 0
-2568 -2566 0
-2568 -2567 0
2568 2566 2567 0
2496 -16566 0
-2496 16566 0
-2563 -1754 0
-2563 2496 0
2563 1754 -2496 0
-2564 1754 0
-2564 -2496 0
2564 -1754 2496 0
-2565 -2563 0
-2565 -2564 0
2565 2563 2564 0
2494 -16564 0
-2494 16564 0
-2557 -1748 0
-2557 2494 0
2557 1748 -2494 0
-2558 1748 0
-2558 -2494 0
2558 -1748 2494 0
-2559 -2557 0
-2559 -2558 0
2559 2557 2558 0
2495 -16565 0
-2495 16565 0
-2560 -1751 0
-2560 2495 0
2560 1751 -2495 0
-2561 1751 0
-2561 -2495 0
2561 -1751 2495 0
-2562 -2560 0
-2562 -2561 0
2562 2560 2561 0
-2743 2559 0
-2743 2562 0
2743 -2559 -2562 0
-2744 2565 0
-2744 2743 0
2744 -2565 -2743 0
-2745 2568 0
-2745 2744 0
2745 -2568 -2744 0
-2746 2571 0
-2746 2745 0
2746 -2571 -2745 0
-2747 2574 0
-2747 2746 0
2747 -2574 -2746 0
-2748 2577 0
-2748 2747 0
2748 -2577 -2747 0
-2749 2580 0
-2749 2748 0
2749 -2580 -2748 0
-2750 2583 0
-2750 2749 0
2750 -2583 -2749 0
-2751 2586 0
-2751 2750 0
2751 -2586 -2750 0
-2752 2589 0
-2752 2751 0
2752 -2589 -2751 0
-2753 2592 0
-2753 2752 0
2753 -2592 -2752 0
-2754 2595 0
-2754 2753 0
2754 -2595 -2753 0
-2755 2598 0
-2755 2754 0
2755 -2598 -2754 0
-2756 2601 0
-2756 2755 0
2756 -2601 -2755 0
-2757 2604 0
-2757 2756 0
2757 -2604 -2756 0
-2758 2607 0
-2758 2757 0
2758 -2607 -2757 0
-2759 2610 0
-2759 2758 0
2759 -2610 -2758 0
-2760 2613 0
-2760 2759 0
2760 -2613 -2759 0
-2761 2616 0
-2761 2760 0
2761 -2616 -2760 0
-2762 2619 0
-2762 2761 0
2762 -2619 -2761 0
-2763 2622 0
-2763 2762 0
2763 -2622 -2762 0
-2764 2625 0
-2764 2763 0
2764 -2625 -2763 0
-2765 2628 0
-2765 2764 0
2765 -2628 -2764 0
-2766 2631 0
-2766 2765 0
2766 -2631 -2765 0
-2767 2634 0
-2767 2766 0
2767 -2634 -2766 0
-2768 2637 0
-2768 2767 0
2768 -2637 -2767 0
-2769 2640 0
-2769 2768 0
2769 -2640 -2768 0
-2770 2643 0
-2770 2769 0
2770 -2643 -2769 0
-2771 2646 0
-2771 2770 0
2771 -2646 -2770 0
-2772 2649 0
-2772 2771 0
2772 -2649 -2771 0
-2773 2652 0
-2773 2772 0
2773 -2652 -2772 0
-2774 2655 0
-2774 2773 0
2774 -2655 -2773 0
-2775 2658 0
-2775 2774 0
2775 -2658 -2774 0
-2776 2661 0
-2776 2775 0
2776 -2661 -2775 0
-2777 2664 0
-2777 2776 0
2777 -2664 -2776 0
-2778 2667 0
-2778 2777 0
2778 -2667 -2777 0
-2779 2670 0
-2779 2778 0
2779 -2670 -2778 0
-2780 2673 0
-2780 2779 0
2780 -2673 -2779 0
-2781 2676 0
-2781 2780 0
2781 -2676 -2780 0
-2782 2679 0
-2782 2781 0
2782 -2679 -2781 0
-2783 2682 0
-2783 2782 0
2783 -2682 -2782 0
-2784 2685 0
-2784 2783 0
2784 -2685 -2783 0
-2785 2688 0
-2785 2784 0
2785 -2688 -2784 0
-2786 2691 0
-2786 2785 0
2786 -2691 -2785 0
-2787 2694 0
-2787 2786 0
2787 -2694 -2786 0
-2788 2697 0
-2788 2787 0
2788 -2697 -2787 0
-2789 2700 0
-2789 2788 0
2789 -2700 -2788 0
-2790 2703 0
-2790 2789 0
2790 -2703 -2789 0
-2791 2706 0
-2791 2790 0
2791 -2706 -2790 0
-2792 2709 0
-2792 2791 0
2792 -2709 -2791 0
-2793 2712 0
-2793 2792 0
2793 -2712 -2792 0
-2794 2715 0
-2794 2793 0
2794 -2715 -2793 0
-2795 2718 0
-2795 2794 0
2795 -2718 -2794 0
-2796 2721 0
-2796 2795 0
2796 -2721 -2795 0
-2797 2724 0
-2797 2796 0
2797 -2724 -2796 0
-2798 2727 0
-2798 2797 0
2798 -2727 -2797 0
-2799 2730 0
-2799 2798 0
2799 -2730 -2798 0
-2800 2733 0
-2800 2799 0
2800 -2733 -2799 0
-2801 2736 0
-2801 2800 0
2801 -2736 -2800 0
-2802 2739 0
-2802 2801 0
2802 -2739 -2801 0
-2803 2742 0
-2803 2802 0
2803 -2742 -2802 0
-2804 -2556 0
-2804 2803 0
2804 2556 -2803 0
-2805 799 0
-2805 -2804 0
2805 -799 2804 0
-2806 2493 0
-2806 -2805 0
2806 -2493 2805 0
-2990 -936 0
-2990 2555 0
2990 936 -2555 0
-2991 936 0
-2991 -2555 0
2991 -936 2555 0
-2992 -2990 0
-2992 -2991 0
2992 2990 2991 0
-2987 -935 0
-2987 2554 0
2987 935 -2554 0
-2988 935 0
-2988 -2554 0
2988 -935 2554 0
-2989 -2987 0
-2989 -2988 0
2989 2987 2988 0
-2984 -934 0
-2984 2553 0
2984 934 -2553 0
-2985 934 0
-2985 -2553 0
2985 -934 2553 0
-2986 -2984 0
-2986 -2985 0
2986 2984 2985 0
-2981 -933 0
-2981 2552 0
2981 933 -2552 0
-2982 933 0
-2982 -2552 0
2982 -933 2552 0
-2983 -2981 0
-2983 -2982 0
2983 2981 2982 0
-2978 -932 0
-2978 2551 0
2978 932 -2551 0
-2979 932 0
-2979 -2551 0
2979 -932 2551 0
-2980 -2978 0
-2980 -2979 0
2980 2978 2979 0
-2975 -931 0
-2975 2550 0
2975 931 -2550 0
-2976 931 0
-2976 -2550 0
2976 -931 2550 0
-2977 -2975 0
-2977 -2976 0
2977 2975 2976 0
-2972 -930 0
-2972 2549 0
2972 930 -2549 0
-2973 930 0
-2973 -2549 0
2973 -930 2549 0
-2974 -2972 0
-2974 -2973 0
2974 2972 2973 0
-2969 -929 0
-2969 2548 0
2969 929 -2548 0
-2970 929 0
-2970 -2548 0
2970 -929 2548 0
-2971 -2969 0
-2971 -2970 0
2971 2969 2970 0
-2966 -928 0
-2966 2547 0
2966 928 -2547 0
-2967 928 0
-2967 -2547 0
2967 -928 2547 0
-2968 -2966 0
-2968 -2967 0
2968 2966 2967 0
-2963 -927 0
-2963 2546 0
2963 927 -2546 0
-2964 927 0
-2964 -2546 0
2964 -927 2546 0
-2965 -2963 0
-2965 -2964 0
2965 2963 2964 0
-2960 -926 0
-2960 2545 0
2960 926 -2545 0
-2961 926 0
-2961 -2545 0
2961 -926 2545 0
-2962 -2960 0
-2962 -2961 0
2962 2960 2961 0
-2957 -925 0
-2957 2544 0
2957 925 -2544 0
-2958 925 0
-2958 -2544 0
2958 -925 2544 0
-2959 -2957 0
-2959 -2958 0
2959 2957 2958 0
-2954 -924 0
-2954 2543 0
2954 924 -2543 0
-2955 924 0
-2955 -2543 0
2955 -924 2543 0
-2956 -2954 0
-2956 -2955 0
2956 2954 2955 0
-2951 -923 0
-2951 2542 0
2951 923 -2542 0
-2952 923 0
-2952 -2542 0
2952 -923 2542 0
-2953 -2951 0
-2953 -2952 0
2953 2951 2952 0
-2948 -922 0
-2948 2541 0
2948 922 -2541 0
-2949 922 0
-2949 -2541 0
2949 -922 2541 0
-2950 -2948 0
-2950 -2949 0
2950 2948 2949 0
-2945 -921 0
-2945 2540 0
2945 921 -2540 0
-2946 921 0
-2946 -2540 0
2946 -921 2540 0
-2947 -2945 0
-2947 -2946 0
2947 2945 2946 0
-2942 -920 0
-2942 2539 0
2942 920 -2539 0
-2943 920 0
-2943 -2539 0
2943 -920 2539 0
-2944 -2942 0
-2944 -2943 0
2944 2942 2943 0
-2939 -919 0
-2939 2538 0
2939 919 -2538 0
-2940 919 0
-2940 -2538 0
2940 -919 2538 0
-2941 -2939 0
-2941 -2940 0
2941 2939 2940 0
-2936 -918 0
-2936 2537 0
2936 918 -2537 0
-2937 918 0
-2937 -2537 0
2937 -918 2537 0
-2938 -2936 0
-2938 -2937 0
2938 2936 2937 0
-2933 -917 0
-2933 2536 0
2933 917 -2536 0
-2934 917 0
-2934 -2536 0
2934 -917 2536 0
-2935 -2933 0
-2935 -2934 0
2935 2933 2934 0
-2930 -916 0
-2930 2535 0
2930 916 -2535 0
-2931 916 0
-2931 -2535 0
2931 -916 2535 0
-2932 -2930 0
-2932 -2931 0
2932 2930 2931 0
-2927 -915 0
-2927 2534 0
2927 915 -2534 0
-2928 915 0
-2928 -2534 0
2928 -915 2534 0
-2929 -2927 0
-2929 -2928 0
2929 2927 2928 0
-2924 -914 0
-2924 2533 0
2924 914 -2533 0
-2925 914 0
-2925 -2533 0
2925 -914 2533 0
-2926 -2924 0
-2926 -2925 0
2926 2924 2925 0
-2921 -913 0
-2921 2532 0
2921 913 -2532 0
-2922 913 0
-2922 -2532 0
2922 -913 2532 0
-2923 -2921 0
-2923 -2922 0
2923 2921 2922 0
-2918 -912 0
-2918 2531 0
2918 912 -2531 0
-2919 912 0
-2919 -2531 0
2919 -912 2531 0
-2920 -2918 0
-2920 -2919 0
2920 2918 2919 0
-2915 -911 0
-2915 2530 0
2915 911 -2530 0
-2916 911 0
-2916 -2530 0
2916 -911 2530 0
-2917 -2915 0
-2917 -2916 0
2917 2915 2916 0
-2912 -910 0
-2912 2529 0
2912 910 -2529 0
-2913 910 0
-2913 -2529 0
2913 -910 2529 0
-2914 -2912 0
-2914 -2913 0
2914 2912 2913 0
-2909 -909 0
-2909 2528 0
2909 909 -2528 0
-2910 909 0
-2910 -2528 0
2910 -909 2528 0
-2911 -2909 0
-2911 -2910 0
2911 2909 2910 0
-2906 -908 0
-2906 2527 0
2906 908 -2527 0
-2907 908 0
-2907 -2527 0
2907 -908 2527 0
-2908 -2906 0
-2908 -2907 0
2908 2906 2907 0
-2903 -907 0
-2903 2526 0
2903 907 -2526 0
-2904 907 0
-2904 -2526 0
2904 -907 2526 0
-2905 -2903 0
-2905 -2904 0
2905 2903 2904 0
-2900 -906 0
-2900 2525 0
2900 906 -2525 0
-2901 906 0
-2901 -2525 0
2901 -906 2525 0
-2902 -2900 0
-2902 -2901 0
2902 2900 2901 0
-2897 -905 0
-2897 2524 0
2897 905 -2524 0
-2898 905 0
-2898 -2524 0
2898 -905 2524 0
-2899 -2897 0
-2899 -2898 0
2899 2897 2898 0
-2894 -904 0
-2894 2523 0
2894 904 -2523 0
-2895 904 0
-2895 -2523 0
2895 -904 2523 0
-2896 -2894 0
-2896 -2895 0
2896 2894 2895 0
-2891 -903 0
-2891 2522 0
2891 903 -2522 0
-2892 903 0
-2892 -2522 0
2892 -903 2522 0
-2893 -2891 0
-2893 -2892 0
2893 2891 2892 0
-2888 -902 0
-2888 2521 0
2888 902 -2521 0
-2889 902 0
-2889 -2521 0
2889 -902 2521 0
-2890 -2888 0
-2890 -2889 0
2890 2888 2889 0
-2885 -901 0
-2885 2520 0
2885 901 -2520 0
-2886 901 0
-2886 -2520 0
2886 -901 2520 0
-2887 -2885 0
-2887 -2886 0
2887 2885 2886 0
-2882 -900 0
-2882 2519 0
2882 900 -2519 0
-2883 900 0
-2883 -2519 0
2883 -900 2519 0
-2884 -2882 0
-2884 -2883 0
2884 2882 2883 0
-2879 -899 0
-2879 2518 0
2879 899 -2518 0
-2880 899 0
-2880 -2518 0
2880 -899 2518 0
-2881 -2879 0
-2881 -2880 0
2881 2879 2880 0
-2876 -898 0
-2876 2517 0
2876 898 -2517 0
-2877 898 0
-2877 -2517 0
2877 -898 2517 0
-2878 -2876 0
-2878 -2877 0
2878 2876 2877 0
-2873 -897 0
-2873 2516 0
2873 897 -2516 0
-2874 897 0
-2874 -2516 0
2874 -897 2516 0
-2875 -2873 0
-2875 -2874 0
2875 2873 2874 0
-2870 -896 0
-2870 2515 0
2870 896 -2515 0
-2871 896 0
-2871 -2515 0
2871 -896 2515 0
-2872 -2870 0
-2872 -2871 0
2872 2870 2871 0
-2867 -895 0
-2867 2514 0
2867 895 -2514 0
-2868 895 0
-2868 -2514 0
2868 -895 2514 0
-2869 -2867 0
-2869 -2868 0
2869 2867 2868 0
-2864 -894 0
-2864 2513 0
2864 894 -2513 0
-2865 894 0
-2865 -2513 0
2865 -894 2513 0
-2866 -2864 0
-2866 -2865 0
2866 2864 2865 0
-2861 -893 0
-2861 2512 0
2861 893 -2512 0
-2862 893 0
-2862 -2512 0
2862 -893 2512 0
-2863 -2861 0
-2863 -2862 0
2863 2861 2862 0
-2858 -892 0
-2858 2511 0
2858 892 -2511 0
-2859 892 0
-2859 -2511 0
2859 -892 2511 0
-2860 -2858 0
-2860 -2859 0
2860 2858 2859 0
-2855 -891 0
-2855 2510 0
2855 891 -2510 0
-2856 891 0
-2856 -2510 0
2856 -891 2510 0
-2857 -2855 0
-2857 -2856 0
2857 2855 2856 0
-2852 -890 0
-2852 2509 0
2852 890 -2509 0
-2853 890 0
-2853 -2509 0
2853 -890 2509 0
-2854 -2852 0
-2854 -2853 0
2854 2852 2853 0
-2849 -889 0
-2849 2508 0
2849 889 -2508 0
-2850 889 0
-2850 -2508 0
2850 -889 2508 0
-2851 -2849 0
-2851 -2850 0
2851 2849 2850 0
-2846 -888 0
-2846 2507 0
2846 888 -2507 0
-2847 888 0
-2847 -2507 0
2847 -888 2507 0
-2848 -2846 0
-2848 -2847 0
2848 2846 2847 0
-2843 -887 0
-2843 2506 0
2843 887 -2506 0
-2844 887 0
-2844 -2506 0
2844 -887 2506 0
-2845 -2843 0
-2845 -2844 0
2845 2843 2844 0
-2840 -886 0
-2840 2505 0
2840 886 -2505 0
-2841 886 0
-2841 -2505 0
2841 -886 2505 0
-2842 -2840 0
-2842 -2841 0
2842 2840 2841 0
-2837 -885 0
-2837 2504 0
2837 885 -2504 0
-2838 885 0
-2838 -2504 0
2838 -885 2504 0
-2839 -2837 0
-2839 -2838 0
2839 2837 2838 0
-2834 -884 0
-2834 2503 0
2834 884 -2503 0
-2835 884 0
-2835 -2503 0
2835 -884 2503 0
-2836 -2834 0
-2836 -2835 0
2836 2834 2835 0
-2831 -883 0
-2831 2502 0
2831 883 -2502 0
-2832 883 0
-2832 -2502 0
2832 -883 2502 0
-2833 -2831 0
-2833 -2832 0
2833 2831 2832 0
-2828 -882 0
-2828 2501 0
2828 882 -2501 0
-2829 882 0
-2829 -2501 0
2829 -882 2501 0
-2830 -2828 0
-2830 -2829 0
2830 2828 2829 0
-2825 -881 0
-2825 2500 0
2825 881 -2500 0
-2826 881 0
-2826 -2500 0
2826 -881 2500 0
-2827 -2825 0
-2827 -2826 0
2827 2825 2826 0
-2822 -880 0
-2822 2499 0
2822 880 -2499 0
-2823 880 0
-2823 -2499 0
2823 -880 2499 0
-2824 -2822 0
-2824 -2823 0
2824 2822 2823 0
-2819 -879 0
-2819 2498 0
2819 879 -2498 0
-2820 879 0
-2820 -2498 0
2820 -879 2498 0
-2821 -2819 0
-2821 -2820 0
2821 2819 2820 0
-2816 -878 0
-2816 2497 0
2816 878 -2497 0
-2817 878 0
-2817 -2497 0
2817 -878 2497 0
-2818 -2816 0
-2818 -2817 0
2818 2816 2817 0
-2813 -877 0
-2813 2496 0
2813 877 -2496 0
-2814 877 0
-2814 -2496 0
2814 -877 2496 0
-2815 -2813 0
-2815 -2814 0
2815 2813 2814 0
-2807 -875 0
-2807 2494 0
2807 875 -2494 0
-2808 875 0
-2808 -2494 0
2808 -875 2494 0
-2809 -2807 0
-2809 -2808 0
2809 2807 2808 0
-2810 -876 0
-2810 2495 0
2810 876 -2495 0
-2811 876 0
-2811 -2495 0
2811 -876 2495 0
-2812 -2810 0
-2812 -2811 0
2812 2810 2811 0
-2993 2809 0
-2993 2812 0
2993 -2809 -2812 0
-2994 2815 0
-2994 2993 0
2994 -2815 -2993 0
-2995 2818 0
-2995 2994 0
2995 -2818 -2994 0
-2996 2821 0
-2996 2995 0
2996 -2821 -2995 0
-2997 2824 0
-2997 2996 0
2997 -2824 -2996 0
-2998 2827 0
-2998 2997 0
2998 -2827 -2997 0
-2999 2830 0
-2999 2998 0
2999 -2830 -2998 0
-3000 2833 0
-3000 2999 0
3000 -2833 -2999 0
-3001 2836 0
-3001 3000 0
3001 -2836 -3000 0
-3002 2839 0
-3002 3001 0
3002 -2839 -3001 0
-3003 2842 0
-3003 3002 0
3003 -2842 -3002 0
-3004 2845 0
-3004 3003 0
3004 -2845 -3003 0
-3005 2848 0
-3005 3004 0
3005 -2848 -3004 0
-3006 2851 0
-3006 3005 0
3006 -2851 -3005 0
-3007 2854 0
-3007 3006 0
3007 -2854 -3006 0
-3008 2857 0
-3008 3007 0
3008 -2857 -3007 0
-3009 2860 0
-3009 3008 0
3009 -2860 -3008 0
-3010 2863 0
-3010 3009 0
3010 -2863 -3009 0
-3011 2866 0
-3011 3010 0
3011 -2866 -3010 0
-3012 2869 0
-3012 3011 0
3012 -2869 -3011 0
-3013 2872 0
-3013 3012 0
3013 -2872 -3012 0
-3014 2875 0
-3014 3013 0
3014 -2875 -3013 0
-3015 2878 0
-3015 3014 0
3015 -2878 -3014 0
-3016 2881 0
-3016 3015 0
3016 -2881 -3015 0
-3017 2884 0
-3017 3016 0
3017 -2884 -3016 0
-3018 2887 0
-3018 3017 0
3018 -2887 -3017 0
-3019 2890 0
-3019 3018 0
3019 -2890 -3018 0
-3020 2893 0
-3020 3019 0
3020 -2893 -3019 0
-3021 2896 0
-3021 3020 0
3021 -2896 -3020 0
-3022 2899 0
-3022 3021 0
3022 -2899 -3021 0
-3023 2902 0
-3023 3022 0
3023 -2902 -3022 0
-3024 2905 0
-3024 3023 0
3024 -2905 -3023 0
-3025 2908 0
-3025 3024 0
3025 -2908 -3024 0
-3026 2911 0
-3026 3025 0
3026 -2911 -3025 0
-3027 2914 0
-3027 3026 0
3027 -2914 -3026 0
-3028 2917 0
-3028 3027 0
3028 -2917 -3027 0
-3029 2920 0
-3029 3028 0
3029 -2920 -3028 0
-3030 2923 0
-3030 3029 0
3030 -2923 -3029 0
-3031 2926 0
-3031 3030 0
3031 -2926 -3030 0
-3032 2929 0
-3032 3031 0
3032 -2929 -3031 0
-3033 2932 0
-3033 3032 0
3033 -2932 -3032 0
-3034 2935 0
-3034 3033 0
3034 -2935 -3033 0
-3035 2938 0
-3035 3034 0
3035 -2938 -3034 0
-3036 2941 0
-3036 3035 0
3036 -2941 -3035 0
-3037 2944 0
-3037 3036 0
3037 -2944 -3036 0
-3038 2947 0
-3038 3037 0
3038 -2947 -3037 0
-3039 2950 0
-3039 3038 0
3039 -2950 -3038 0
-3040 2953 0
-3040 3039 0
3040 -2953 -3039 0
-3041 2956 0
-3041 3040 0
3041 -2956 -3040 0
-3042 2959 0
-3042 3041 0
3042 -2959 -3041 0
-3043 2962 0
-3043 3042 0
3043 -2962 -3042 0
-3044 2965 0
-3044 3043 0
3044 -2965 -3043 0
-3045 2968 0
-3045 3044 0
3045 -2968 -3044 0
-3046 2971 0
-3046 3045 0
3046 -2971 -3045 0
-3047 2974 0
-3047 3046 0
3047 -2974 -3046 0
-3048 2977 0
-3048 3047 0
3048 -2977 -3047 0
-3049 2980 0
-3049 3048 0
3049 -2980 -3048 0
-3050 2983 0
-3050 3049 0
3050 -2983 -3049 0
-3051 2986 0
-3051 3050 0
3051 -2986 -3050 0
-3052 2989 0
-3052 3051 0
3052 -2989 -3051 0
-3053 2992 0
-3053 3052 0
3053 -2992 -3052 0
-3054 -2556 0
-3054 3053 0
3054 2556 -3053 0
-3055 -799 0
-3055 -3054 0
3055 799 3054 0
-3056 2806 0
-3056 -3055 0
3056 -2806 3055 0
3120 -16690 0
-3120 16690 0
3119 -16689 0
-3119 16689 0
-3544 1303 0
-3544 1304 0
3544 -1303 -1304 0
-3537 1302 0
-3537 1303 0
3537 -1302 -1303 0
-3530 1301 0
-3530 1302 0
3530 -1301 -1302 0
-3523 1300 0
-3523 1301 0
3523 -1300 -1301 0
-3516 1299 0
-3516 1300 0
3516 -1299 -1300 0
-3509 1298 0
-3509 1299 0
3509 -1298 -1299 0
-3502 1297 0
-3502 1298 0
3502 -1297 -1298 0
-3495 1296 0
-3495 1297 0
3495 -1296 -1297 0
-3488 1295 0
-3488 1296 0
3488 -1295 -1296 0
-3481 1294 0
-3481 1295 0
3481 -1294 -1295 0
-3474 1293 0
-3474 1294 0
3474 -1293 -1294 0
-3467 1292 0
-3467 1293 0
3467 -1292 -1293 0
-3460 1291 0
-3460 1292 0
3460 -1291 -1292 0
-3453 1290 0
-3453 1291 0
3453 -1290 -1291 0
-3446 1289 0
-3446 1290 0
3446 -1289 -1290 0
-3439 1288 0
-3439 1289 0
3439 -1288 -1289 0
-3432 1287 0
-3432 1288 0
3432 -1287 -1288 0
-3425 1286 0
-3425 1287 0
3425 -1286 -1287 0
-3418 1285 0
-3418 1286 0
3418 -1285 -1286 0
-3411 1284 0
-3411 1285 0
3411 -1284 -1285 0
-3404 1283 0
-3404 1284 0
3404 -1283 -1284 0
-3397 1282 0
-3397 1283 0
3397 -1282 -1283 0
-3390 1281 0
-3390 1282 0
3390 -1281 -1282 0
-3383 1280 0
-3383 1281 0
3383 -1280 -1281 0
-3376 1279 0
-3376 1280 0
3376 -1279 -1280 0
-3369 1278 0
-3369 1279 0
3369 -1278 -1279 0
-3362 1277 0
-3362 1278 0
3362 -1277 -1278 0
-3355 1276 0
-3355 1277 0
3355 -1276 -1277 0
-3348 1275 0
-3348 1276 0
3348 -1275 -1276 0
-3341 1274 0
-3341 1275 0
3341 -1274 -1275 0
-3334 1273 0
-3334 1274 0
3334 -1273 -1274 0
-3327 1272 0
-3327 1273 0
3327 -1272 -1273 0
-3320 1271 0
-3320 1272 0
3320 -1271 -1272 0
-3313 1270 0
-3313 1271 0
3313 -1270 -1271 0
-3306 1269 0
-3306 1270 0
3306 -1269 -1270 0
-3299 1268 0
-3299 1269 0
3299 -1268 -1269 0
-3292 1267 0
-3292 1268 0
3292 -1267 -1268 0
-3285 1266 0
-3285 1267 0
3285 -1266 -1267 0
-3278 1265 0
-3278 1266 0
3278 -1265 -1266 0
-3271 1264 0
-3271 1265 0
3271 -1264 -1265 0
-3264 1263 0
-3264 1264 0
3264 -1263 -1264 0
-3257 1262 0
-3257 1263 0
3257 -1262 -1263 0
-3250 1261 0
-3250 1262 0
3250 -1261 -1262 0
-3243 1260 0
-3243 1261 0
3243 -1260 -1261 0
-3236 1259 0
-3236 1260 0
3236 -1259 -1260 0
-3229 1258 0
-3229 1259 0
3229 -1258 -1259 0
-3222 1257 0
-3222 1258 0
3222 -1257 -1258 0
-3215 1256 0
-3215 1257 0
3215 -1256 -1257 0
-3208 1255 0
-3208 1256 0
3208 -1255 -1256 0
-3201 1254 0
-3201 1255 0
3201 -1254 -1255 0
-3194 1253 0
-3194 1254 0
3194 -1253 -1254 0
-3187 1252 0
-3187 1253 0
3187 -1252 -1253 0
-3180 1251 0
-3180 1252 0
3180 -1251 -1252 0
-3173 1250 0
-3173 1251 0
3173 -1250 -1251 0
-3166 1249 0
-3166 1250 0
3166 -1249 -1250 0
-3159 1248 0
-3159 1249 0
3159 -1248 -1249 0
-3152 1247 0
-3152 1248 0
3152 -1247 -1248 0
-3145 1246 0
-3145 1247 0
3145 -1246 -1247 0
-3138 1245 0
-3138 1246 0
3138 -1245 -1246 0
-3131 1244 0
-3131 1245 0
3131 -1244 -1245 0
-3124 1243 0
-3124 1244 0
3124 -1243 -1244 0
-3121 1242 0
-3121 1243 0
3121 -1242 -1243 0
-3125 -1243 0
-3125 -1244 0
3125 1243 1244 0
-3126 -3124 0
-3126 -3125 0
3126 3124 3125 0
-3127 3121 0
-3127 3126 0
3127 -3121 -3126 0
-3130 -3124 0
-3130 -3127 0
3130 3124 3127 0
-3132 -1244 0
-3132 -1245 0
3132 1244 1245 0
-3133 -3131 0
-3133 -3132 0
3133 3131 3132 0
-3134 -3130 0
-3134 3133 0
3134 3130 -3133 0
-3137 -3131 0
-3137 -3134 0
3137 3131 3134 0
-3139 -1245 0
-3139 -1246 0
3139 1245 1246 0
-3140 -3138 0
-3140 -3139 0
3140 3138 3139 0
-3141 -3137 0
-3141 3140 0
3141 3137 -3140 0
-3144 -3138 0
-3144 -3141 0
3144 3138 3141 0
-3146 -1246 0
-3146 -1247 0
3146 1246 1247 0
-3147 -3145 0
-3147 -3146 0
3147 3145 3146 0
-3148 -3144 0
-3148 3147 0
3148 3144 -3147 0
-3151 -3145 0
-3151 -3148 0
3151 3145 3148 0
-3153 -1247 0
-3153 -1248 0
3153 1247 1248 0
-3154 -3152 0
-3154 -3153 0
3154 3152 3153 0
-3155 -3151 0
-3155 3154 0
3155 3151 -3154 0
-3158 -3152 0
-3158 -3155 0
3158 3152 3155 0
-3160 -1248 0
-3160 -1249 0
3160 1248 1249 0
-3161 -3159 0
-3161 -3160 0
3161 3159 3160 0
-3162 -3158 0
-3162 3161 0
3162 3158 -3161 0
-3165 -3159 0
-3165 -3162 0
3165 3159 3162 0
-3167 -1249 0
-3167 -1250 0
3167 1249 1250 0
-3168 -3166 0
-3168 -3167 0
3168 3166 3167 0
-3169 -3165 0
-3169 3168 0
3169 3165 -3168 0
-3172 -3166 0
-3172 -3169 0
3172 3166 3169 0
-3174 -1250 0
-3174 -1251 0
3174 1250 1251 0
-3175 -3173 0
-3175 -3174 0
3175 3173 3174 0
-3176 -3172 0
-3176 3175 0
3176 3172 -3175 0
-3179 -3173 0
-3179 -3176 0
3179 3173 3176 0
-3181 -1251 0
-3181 -1252 0
3181 1251 1252 0
-3182 -3180 0
-3182 -3181 0
3182 3180 3181 0
-3183 -3179 0
-3183 3182 0
3183 3179 -3182 0
-3186 -3180 0
-3186 -3183 0
3186 3180 3183 0
-3188 -1252 0
-3188 -1253 0
3188 1252 1253 0
-3189 -3187 0
-3189 -3188 0
3189 3187 3188 0
-3190 -3186 0
-3190 3189 0
3190 3186 -3189 0
-3193 -3187 0
-3193 -3190 0
3193 3187 3190 0
-3195 -1253 0
-3195 -1254 0
3195 1253 1254 0
-3196 -3194 0
-3196 -3195 0
3196 3194 3195 0
-3197 -3193 0
-3197 3196 0
3197 3193 -3196 0
-3200 -3194 0
-3200 -3197 0
3200 3194 3197 0
-3202 -1254 0
-3202 -1255 0
3202 1254 1255 0
-3203 -3201 0
-3203 -3202 0
3203 3201 3202 0
-3204 -3200 0
-3204 3203 0
3204 3200 -3203 0
-3207 -3201 0
-3207 -3204 0
3207 3201 3204 0
-3209 -1255 0
-3209 -1256 0
3209 1255 1256 0
-3210 -3208 0
-3210 -3209 0
3210 3208 3209 0
-3211 -3207 0
-3211 3210 0
3211 3207 -3210 0
-3214 -3208 0
-3214 -3211 0
3214 3208 3211 0
-3216 -1256 0
-3216 -1257 0
3216 1256 1257 0
-3217 -3215 0
-3217 -3216 0
3217 3215 3216 0
-3218 -3214 0
-3218 3217 0
3218 3214 -3217 0
-3221 -3215 0
-3221 -3218 0
3221 3215 3218 0
-3223 -1257 0
-3223 -1258 0
3223 1257 1258 0
-3224 -3222 0
-3224 -3223 0
3224 3222 3223 0
-3225 -3221 0
-3225 3224 0
3225 3221 -3224 0
-3228 -3222 0
-3228 -3225 0
3228 3222 3225 0
-3230 -1258 0
-3230 -1259 0
3230 1258 1259 0
-3231 -3229 0
-3231 -3230 0
3231 3229 3230 0
-3232 -3228 0
-3232 3231 0
3232 3228 -3231 0
-3235 -3229 0
-3235 -3232 0
3235 3229 3232 0
-3237 -1259 0
-3237 -1260 0
3237 1259 1260 0
-3238 -3236 0
-3238 -3237 0
3238 3236 3237 0
-3239 -3235 0
-3239 3238 0
3239 3235 -3238 0
-3242 -3236 0
-3242 -3239 0
3242 3236 3239 0
-3244 -1260 0
-3244 -1261 0
3244 1260 1261 0
-3245 -3243 0
-3245 -3244 0
3245 3243 3244 0
-3246 -3242 0
-3246 3245 0
3246 3242 -3245 0
-3249 -3243 0
-3249 -3246 0
3249 3243 3246 0
-3251 -1261 0
-3251 -1262 0
3251 1261 1262 0
-3252 -3250 0
-3252 -3251 0
3252 3250 3251 0
-3253 -3249 0
-3253 3252 0
3253 3249 -3252 0
-3256 -3250 0
-3256 -3253 0
3256 3250 3253 0
-3258 -1262 0
-3258 -1263 0
3258 1262 1263 0
-3259 -3257 0
-3259 -3258 0
3259 3257 3258 0
-3260 -3256 0
-3260 3259 0
3260 3256 -3259 0
-3263 -3257 0
-3263 -3260 0
3263 3257 3260 0
-3265 -1263 0
-3265 -1264 0
3265 1263 1264 0
-3266 -3264 0
-3266 -3265 0
3266 3264 3265 0
-3267 -3263 0
-3267 3266 0
3267 3263 -3266 0
-3270 -3264 0
-3270 -3267 0
3270 3264 3267 0
-3272 -1264 0
-3272 -1265 0
3272 1264 1265 0
-3273 -3271 0
-3273 -3272 0
3273 3271 3272 0
-3274 -3270 0
-3274 3273 0
3274 3270 -3273 0
-3277 -3271 0
-3277 -3274 0
3277 3271 3274 0
-3279 -1265 0
-3279 -1266 0
3279 1265 1266 0
-3280 -3278 0
-3280 -3279 0
3280 3278 3279 0
-3281 -3277 0
-3281 3280 0
3281 3277 -3280 0
-3284 -3278 0
-3284 -3281 0
3284 3278 3281 0
-3286 -1266 0
-3286 -1267 0
3286 1266 1267 0
-3287 -3285 0
-3287 -3286 0
3287 3285 3286 0
-3288 -3284 0
-3288 3287 0
3288 3284 -3287 0
-3291 -3285 0
-3291 -3288 0
3291 3285 3288 0
-3293 -1267 0
-3293 -1268 0
3293 1267 1268 0
-3294 -3292 0
-3294 -3293 0
3294 3292 3293 0
-3295 -3291 0
-3295 3294 0
3295 3291 -3294 0
-3298 -3292 0
-3298 -3295 0
3298 3292 3295 0
-3300 -1268 0
-3300 -1269 0
3300 1268 1269 0
-3301 -3299 0
-3301 -3300 0
3301 3299 3300 0
-3302 -3298 0
-3302 3301 0
3302 3298 -3301 0
-3305 -3299 0
-3305 -3302 0
3305 3299 3302 0
-3307 -1269 0
-3307 -1270 0
3307 1269 1270 0
-3308 -3306 0
-3308 -3307 0
3308 3306 3307 0
-3309 -3305 0
-3309 3308 0
3309 3305 -3308 0
-3312 -3306 0
-3312 -3309 0
3312 3306 3309 0
-3314 -1270 0
-3314 -1271 0
3314 1270 1271 0
-3315 -3313 0
-3315 -3314 0
3315 3313 3314 0
-3316 -3312 0
-3316 3315 0
3316 3312 -3315 0
-3319 -3313 0
-3319 -3316 0
3319 3313 3316 0
-3321 -1271 0
-3321 -1272 0
3321 1271 1272 0
-3322 -3320 0
-3322 -3321 0
3322 3320 3321 0
-3323 -3319 0
-3323 3322 0
3323 3319 -3322 0
-3326 -3320 0
-3326 -3323 0
3326 3320 3323 0
-3328 -1272 0
-3328 -1273 0
3328 1272 1273 0
-3329 -3327 0
-3329 -3328 0
3329 3327 3328 0
-3330 -3326 0
-3330 3329 0
3330 3326 -3329 0
-3333 -3327 0
-3333 -3330 0
3333 3327 3330 0
-3335 -1273 0
-3335 -1274 0
3335 1273 1274 0
-3336 -3334 0
-3336 -3335 0
3336 3334 3335 0
-3337 -3333 0
-3337 3336 0
3337 3333 -3336 0
-3340 -3334 0
-3340 -3337 0
3340 3334 3337 0
-3342 -1274 0
-3342 -1275 0
3342 1274 1275 0
-3343 -3341 0
-3343 -3342 0
3343 3341 3342 0
-3344 -3340 0
-3344 3343 0
3344 3340 -3343 0
-3347 -3341 0
-3347 -3344 0
3347 3341 3344 0
-3349 -1275 0
-3349 -1276 0
3349 1275 1276 0
-3350 -3348 0
-3350 -3349 0
3350 3348 3349 0
-3351 -3347 0
-3351 3350 0
3351 3347 -3350 0
-3354 -3348 0
-3354 -3351 0
3354 3348 3351 0
-3356 -1276 0
-3356 -1277 0
3356 1276 1277 0
-3357 -3355 0
-3357 -3356 0
3357 3355 3356 0
-3358 -3354 0
-3358 3357 0
3358 3354 -3357 0
-3361 -3355 0
-3361 -3358 0
3361 3355 3358 0
-3363 -1277 0
-3363 -1278 0
3363 1277 1278 0
-3364 -3362 0
-3364 -3363 0
3364 3362 3363 0
-3365 -3361 0
-3365 3364 0
3365 3361 -3364 0
-3368 -3362 0
-3368 -3365 0
3368 3362 3365 0
-3370 -1278 0
-3370 -1279 0
3370 1278 1279 0
-3371 -3369 0
-3371 -3370 0
3371 3369 3370 0
-3372 -3368 0
-3372 3371 0
3372 3368 -3371 0
-3375 -3369 0
-3375 -3372 0
3375 3369 3372 0
-3377 -1279 0
-3377 -1280 0
3377 1279 1280 0
-3378 -3376 0
-3378 -3377 0
3378 3376 3377 0
-3379 -3375 0
-3379 3378 0
3379 3375 -3378 0
-3382 -3376 0
-3382 -3379 0
3382 3376 3379 0
-3384 -1280 0
-3384 -1281 0
3384 1280 1281 0
-3385 -3383 0
-3385 -3384 0
3385 3383 3384 0
-3386 -3382 0
-3386 3385 0
3386 3382 -3385 0
-3389 -3383 0
-3389 -3386 0
3389 3383 3386 0
-3391 -1281 0
-3391 -1282 0
3391 1281 1282 0
-3392 -3390 0
-3392 -3391 0
3392 3390 3391 0
-3393 -3389 0
-3393 3392 0
3393 3389 -3392 0
-3396 -3390 0
-3396 -3393 0
3396 3390 3393 0
-3398 -1282 0
-3398 -1283 0
3398 1282 1283 0
-3399 -3397 0
-3399 -3398 0
3399 3397 3398 0
-3400 -3396 0
-3400 3399 0
3400 3396 -3399 0
-3403 -3397 0
-3403 -3400 0
3403 3397 3400 0
-3405 -1283 0
-3405 -1284 0
3405 1283 1284 0
-3406 -3404 0
-3406 -3405 0
3406 3404 3405 0
-3407 -3403 0
-3407 3406 0
3407 3403 -3406 0
-3410 -3404 0
-3410 -3407 0
3410 3404 3407 0
-3412 -1284 0
-3412 -1285 0
3412 1284 1285 0
-3413 -3411 0
-3413 -3412 0
3413 3411 3412 0
-3414 -3410 0
-3414 3413 0
3414 3410 -3413 0
-3417 -3411 0
-3417 -3414 0
3417 3411 3414 0
-3419 -1285 0
-3419 -1286 0
3419 1285 1286 0
-3420 -3418 0
-3420 -3419 0
3420 3418 3419 0
-3421 -3417 0
-3421 3420 0
3421 3417 -3420 0
-3424 -3418 0
-3424 -3421 0
3424 3418 3421 0
-3426 -1286 0
-3426 -1287 0
3426 1286 1287 0
-3427 -3425 0
-3427 -3426 0
3427 3425 3426 0
-3428 -3424 0
-3428 3427 0
3428 3424 -3427 0
-3431 -3425 0
-3431 -3428 0
3431 3425 3428 0
-3433 -1287 0
-3433 -1288 0
3433 1287 1288 0
-3434 -3432 0
-3434 -3433 0
3434 3432 3433 0
-3435 -3431 0
-3435 3434 0
3435 3431 -3434 0
-3438 -3432 0
-3438 -3435 0
3438 3432 3435 0
-3440 -1288 0
-3440 -1289 0
3440 1288 1289 0
-3441 -3439 0
-3441 -3440 0
3441 3439 3440 0
-3442 -3438 0
-3442 3441 0
3442 3438 -3441 0
-3445 -3439 0
-3445 -3442 0
3445 3439 3442 0
-3447 -1289 0
-3447 -1290 0
3447 1289 1290 0
-3448 -3446 0
-3448 -3447 0
3448 3446 3447 0
-3449 -3445 0
-3449 3448 0
3449 3445 -3448 0
-3452 -3446 0
-3452 -3449 0
3452 3446 3449 0
-3454 -1290 0
-3454 -1291 0
3454 1290 1291 0
-3455 -3453 0
-3455 -3454 0
3455 3453 3454 0
-3456 -3452 0
-3456 3455 0
3456 3452 -3455 0
-3459 -3453 0
-3459 -3456 0
3459 3453 3456 0
-3461 -1291 0
-3461 -1292 0
3461 1291 1292 0
-3462 -3460 0
-3462 -3461 0
3462 3460 3461 0
-3463 -3459 0
-3463 3462 0
3463 3459 -3462 0
-3466 -3460 0
-3466 -3463 0
3466 3460 3463 0
-3468 -1292 0
-3468 -1293 0
3468 1292 1293 0
-3469 -3467 0
-3469 -3468 0
3469 3467 3468 0
-3470 -3466 0
-3470 3469 0
3470 3466 -3469 0
-3473 -3467 0
-3473 -3470 0
3473 3467 3470 0
-3475 -1293 0
-3475 -1294 0
3475 1293 1294 0
-3476 -3474 0
-3476 -3475 0
3476 3474 3475 0
-3477 -3473 0
-3477 3476 0
3477 3473 -3476 0
-3480 -3474 0
-3480 -3477 0
3480 3474 3477 0
-3482 -1294 0
-3482 -1295 0
3482 1294 1295 0
-3483 -3481 0
-3483 -3482 0
3483 3481 3482 0
-3484 -3480 0
-3484 3483 0
3484 3480 -3483 0
-3487 -3481 0
-3487 -3484 0
3487 3481 3484 0
-3489 -1295 0
-3489 -1296 0
3489 1295 1296 0
-3490 -3488 0
-3490 -3489 0
3490 3488 3489 0
-3491 -3487 0
-3491 3490 0
3491 3487 -3490 0
-3494 -3488 0
-3494 -3491 0
3494 3488 3491 0
-3496 -1296 0
-3496 -1297 0
3496 1296 1297 0
-3497 -3495 0
-3497 -3496 0
3497 3495 3496 0
-3498 -3494 0
-3498 3497 0
3498 3494 -3497 0
-3501 -3495 0
-3501 -3498 0
3501 3495 3498 0
-3503 -1297 0
-3503 -1298 0
3503 1297 1298 0
-3504 -3502 0
-3504 -3503 0
3504 3502 3503 0
-3505 -3501 0
-3505 3504 0
3505 3501 -3504 0
-3508 -3502 0
-3508 -3505 0
3508 3502 3505 0
-3510 -1298 0
-3510 -1299 0
3510 1298 1299 0
-3511 -3509 0
-3511 -3510 0
3511 3509 3510 0
-3512 -3508 0
-3512 3511 0
3512 3508 -3511 0
-3515 -3509 0
-3515 -3512 0
3515 3509 3512 0
-3517 -1299 0
-3517 -1300 0
3517 1299 1300 0
-3518 -3516 0
-3518 -3517 0
3518 3516 3517 0
-3519 -3515 0
-3519 3518 0
3519 3515 -3518 0
-3522 -3516 0
-3522 -3519 0
3522 3516 3519 0
-3524 -1300 0
-3524 -1301 0
3524 1300 1301 0
-3525 -3523 0
-3525 -3524 0
3525 3523 3524 0
-3526 -3522 0
-3526 3525 0
3526 3522 -3525 0
-3529 -3523 0
-3529 -3526 0
3529 3523 3526 0
-3531 -1301 0
-3531 -1302 0
3531 1301 1302 0
-3532 -3530 0
-3532 -3531 0
3532 3530 3531 0
-3533 -3529 0
-3533 3532 0
3533 3529 -3532 0
-3536 -3530 0
-3536 -3533 0
3536 3530 3533 0
-3538 -1302 0
-3538 -1303 0
3538 1302 1303 0
-3539 -3537 0
-3539 -3538 0
3539 3537 3538 0
-3540 -3536 0
-3540 3539 0
3540 3536 -3539 0
-3543 -3537 0
-3543 -3540 0
3543 3537 3540 0
-3545 -1303 0
-3545 -1304 0
3545 1303 1304 0
-3546 -3544 0
-3546 -3545 0
3546 3544 3545 0
-3547 -3543 0
-3547 3546 0
3547 3543 -3546 0
-3550 -3544 0
-3550 -3547 0
3550 3544 3547 0
-3551 1304 0
-3551 1305 0
3551 -1304 -1305 0
-3552 -1304 0
-3552 -1305 0
3552 1304 1305 0
-3553 -3551 0
-3553 -3552 0
3553 3551 3552 0
-3554 -3550 0
-3554 3553 0
3554 3550 -3553 0
-3555 3550 0
-3555 -3553 0
3555 -3550 3553 0
-3556 -3554 0
-3556 -3555 0
3556 3554 3555 0
-3548 3543 0
-3548 -3546 0
3548 -3543 3546 0
-3549 -3547 0
-3549 -3548 0
3549 3547 3548 0
-3541 3536 0
-3541 -3539 0
3541 -3536 3539 0
-3542 -3540 0
-3542 -3541 0
3542 3540 3541 0
-3534 3529 0
-3534 -3532 0
3534 -3529 3532 0
-3535 -3533 0
-3535 -3534 0
3535 3533 3534 0
-3527 3522 0
-3527 -3525 0
3527 -3522 3525 0
-3528 -3526 0
-3528 -3527 0
3528 3526 3527 0
-3520 3515 0
-3520 -3518 0
3520 -3515 3518 0
-3521 -3519 0
-3521 -3520 0
3521 3519 3520 0
-3513 3508 0
-3513 -3511 0
3513 -3508 3511 0
-3514 -3512 0
-3514 -3513 0
3514 3512 3513 0
-3506 3501 0
-3506 -3504 0
3506 -3501 3504 0
-3507 -3505 0
-3507 -3506 0
3507 3505 3506 0
-3499 3494 0
-3499 -3497 0
3499 -3494 3497 0
-3500 -3498 0
-3500 -3499 0
3500 3498 3499 0
-3492 3487 0
-3492 -3490 0
3492 -3487 3490 0
-3493 -3491 0
-3493 -3492 0
3493 3491 3492 0
-3485 3480 0
-3485 -3483 0
3485 -3480 3483 0
-3486 -3484 0
-3486 -3485 0
3486 3484 3485 0
-3478 3473 0
-3478 -3476 0
3478 -3473 3476 0
-3479 -3477 0
-3479 -3478 0
3479 3477 3478 0
-3471 3466 0
-3471 -3469 0
3471 -3466 3469 0
-3472 -3470 0
-3472 -3471 0
3472 3470 3471 0
-3464 3459 0
-3464 -3462 0
3464 -3459 3462 0
-3465 -3463 0
-3465 -3464 0
3465 3463 3464 0
-3457 3452 0
-3457 -3455 0
3457 -3452 3455 0
-3458 -3456 0
-3458 -3457 0
3458 3456 3457 0
-3450 3445 0
-3450 -3448 0
3450 -3445 3448 0
-3451 -3449 0
-3451 -3450 0
3451 3449 3450 0
-3443 3438 0
-3443 -3441 0
3443 -3438 3441 0
-3444 -3442 0
-3444 -3443 0
3444 3442 3443 0
-3436 3431 0
-3436 -3434 0
3436 -3431 3434 0
-3437 -3435 0
-3437 -3436 0
3437 3435 3436 0
-3429 3424 0
-3429 -3427 0
3429 -3424 3427 0
-3430 -3428 0
-3430 -3429 0
3430 3428 3429 0
-3422 3417 0
-3422 -3420 0
3422 -3417 3420 0
-3423 -3421 0
-3423 -3422 0
3423 3421 3422 0
-3415 3410 0
-3415 -3413 0
3415 -3410 3413 0
-3416 -3414 0
-3416 -3415 0
3416 3414 3415 0
-3408 3403 0
-3408 -3406 0
3408 -3403 3406 0
-3409 -3407 0
-3409 -3408 0
3409 3407 3408 0
-3401 3396 0
-3401 -3399 0
3401 -3396 3399 0
-3402 -3400 0
-3402 -3401 0
3402 3400 3401 0
-3394 3389 0
-3394 -3392 0
3394 -3389 3392 0
-3395 -3393 0
-3395 -3394 0
3395 3393 3394 0
-3387 3382 0
-3387 -3385 0
3387 -3382 3385 0
-3388 -3386 0
-3388 -3387 0
3388 3386 3387 0
-3380 3375 0
-3380 -3378 0
3380 -3375 3378 0
-3381 -3379 0
-3381 -3380 0
3381 3379 3380 0
-3373 3368 0
-3373 -3371 0
3373 -3368 3371 0
-3374 -3372 0
-3374 -3373 0
3374 3372 3373 0
-3366 3361 0
-3366 -3364 0
3366 -3361 3364 0
-3367 -3365 0
-3367 -3366 0
3367 3365 3366 0
-3359 3354 0
-3359 -3357 0
3359 -3354 3357 0
-3360 -3358 0
-3360 -3359 0
3360 3358 3359 0
-3352 3347 0
-3352 -3350 0
3352 -3347 3350 0
-3353 -3351 0
-3353 -3352 0
3353 3351 3352 0
-3345 3340 0
-3345 -3343 0
3345 -3340 3343 0
-3346 -3344 0
-3346 -3345 0
3346 3344 3345 0
-3338 3333 0
-3338 -3336 0
3338 -3333 3336 0
-3339 -3337 0
-3339 -3338 0
3339 3337 3338 0
-3331 3326 0
-3331 -3329 0
3331 -3326 3329 0
-3332 -3330 0
-3332 -3331 0
3332 3330 3331 0
-3324 3319 0
-3324 -3322 0
3324 -3319 3322 0
-3325 -3323 0
-3325 -3324 0
3325 3323 3324 0
-3317 3312 0
-3317 -3315 0
3317 -3312 3315 0
-3318 -3316 0
-3318 -3317 0
3318 3316 3317 0
-3310 3305 0
-3310 -3308 0
3310 -3305 3308 0
-3311 -3309 0
-3311 -3310 0
3311 3309 3310 0
-3303 3298 0
-3303 -3301 0
3303 -3298 3301 0
-3304 -3302 0
-3304 -3303 0
3304 3302 3303 0
-3296 3291 0
-3296 -3294 0
3296 -3291 3294 0
-3297 -3295 0
-3297 -3296 0
3297 3295 3296 0
-3289 3284 0
-3289 -3287 0
3289 -3284 3287 0
-3290 -3288 0
-3290 -3289 0
3290 3288 3289 0
-3282 3277 0
-3282 -3280 0
3282 -3277 3280 0
-3283 -3281 0
-3283 -3282 0
3283 3281 3282 0
-3275 3270 0
-3275 -3273 0
3275 -3270 3273 0
-3276 -3274 0
-3276 -3275 0
3276 3274 3275 0
-3268 3263 0
-3268 -3266 0
3268 -3263 3266 0
-3269 -3267 0
-3269 -3268 0
3269 3267 3268 0
-3261 3256 0
-3261 -3259 0
3261 -3256 3259 0
-3262 -3260 0
-3262 -3261 0
3262 3260 3261 0
-3254 3249 0
-3254 -3252 0
3254 -3249 3252 0
-3255 -3253 0
-3255 -3254 0
3255 3253 3254 0
-3247 3242 0
-3247 -3245 0
3247 -3242 3245 0
-3248 -3246 0
-3248 -3247 0
3248 3246 3247 0
-3240 3235 0
-3240 -3238 0
3240 -3235 3238 0
-3241 -3239 0
-3241 -3240 0
3241 3239 3240 0
-3233 3228 0
-3233 -3231 0
3233 -3228 3231 0
-3234 -3232 0
-3234 -3233 0
3234 3232 3233 0
-3226 3221 0
-3226 -3224 0
3226 -3221 3224 0
-3227 -3225 0
-3227 -3226 0
3227 3225 3226 0
-3219 3214 0
-3219 -3217 0
3219 -3214 3217 0
-3220 -3218 0
-3220 -3219 0
3220 3218 3219 0
-3212 3207 0
-3212 -3210 0
3212 -3207 3210 0
-3213 -3211 0
-3213 -3212 0
3213 3211 3212 0
-3205 3200 0
-3205 -3203 0
3205 -3200 3203 0
-3206 -3204 0
-3206 -3205 0
3206 3204 3205 0
-3198 3193 0
-3198 -3196 0
3198 -3193 3196 0
-3199 -3197 0
-3199 -3198 0
3199 3197 3198 0
-3191 3186 0
-3191 -3189 0
3191 -3186 3189 0
-3192 -3190 0
-3192 -3191 0
3192 3190 3191 0
-3184 3179 0
-3184 -3182 0
3184 -3179 3182 0
-3185 -3183 0
-3185 -3184 0
3185 3183 3184 0
-3177 3172 0
-3177 -3175 0
3177 -3172 3175 0
-3178 -3176 0
-3178 -3177 0
3178 3176 3177 0
-3170 3165 0
-3170 -3168 0
3170 -3165 3168 0
-3171 -3169 0
-3171 -3170 0
3171 3169 3170 0
-3163 3158 0
-3163 -3161 0
3163 -3158 3161 0
-3164 -3162 0
-3164 -3163 0
3164 3162 3163 0
-3156 3151 0
-3156 -3154 0
3156 -3151 3154 0
-3157 -3155 0
-3157 -3156 0
3157 3155 3156 0
-3149 3144 0
-3149 -3147 0
3149 -3144 3147 0
-3150 -3148 0
-3150 -3149 0
3150 3148 3149 0
-3142 3137 0
-3142 -3140 0
3142 -3137 3140 0
-3143 -3141 0
-3143 -3142 0
3143 3141 3142 0
-3135 3130 0
-3135 -3133 0
3135 -3130 3133 0
-3136 -3134 0
-3136 -3135 0
3136 3134 3135 0
-3128 -3121 0
-3128 -3126 0
3128 3121 3126 0
-3129 -3127 0
-3129 -3128 0
3129 3127 3128 0
-3122 -1242 0
-3122 -1243 0
3122 1242 1243 0
-3123 -3121 0
-3123 -3122 0
3123 3121 3122 0
-3558 1242 0
-3558 3123 0
3558 -1242 -3123 0
-3561 3129 0
-3561 3558 0
3561 -3129 -3558 0
-3564 3136 0
-3564 3561 0
3564 -3136 -3561 0
-3567 3143 0
-3567 3564 0
3567 -3143 -3564 0
-3570 3150 0
-3570 3567 0
3570 -3150 -3567 0
-3573 3157 0
-3573 3570 0
3573 -3157 -3570 0
-3576 3164 0
-3576 3573 0
3576 -3164 -3573 0
-3579 3171 0
-3579 3576 0
3579 -3171 -3576 0
-3582 3178 0
-3582 3579 0
3582 -3178 -3579 0
-3585 3185 0
-3585 3582 0
3585 -3185 -3582 0
-3588 3192 0
-3588 3585 0
3588 -3192 -3585 0
-3591 3199 0
-3591 3588 0
3591 -3199 -3588 0
-3594 3206 0
-3594 3591 0
3594 -3206 -3591 0
-3597 3213 0
-3597 3594 0
3597 -3213 -3594 0
-3600 3220 0
-3600 3597 0
3600 -3220 -3597 0
-3603 3227 0
-3603 3600 0
3603 -3227 -3600 0
-3606 3234 0
-3606 3603 0
3606 -3234 -3603 0
-3609 3241 0
-3609 3606 0
3609 -3241 -3606 0
-3612 3248 0
-3612 3609 0
3612 -3248 -3609 0
-3615 3255 0
-3615 3612 0
3615 -3255 -3612 0
-3618 3262 0
-3618 3615 0
3618 -3262 -3615 0
-3621 3269 0
-3621 3618 0
3621 -3269 -3618 0
-3624 3276 0
-3624 3621 0
3624 -3276 -3621 0
-3627 3283 0
-3627 3624 0
3627 -3283 -3624 0
-3630 3290 0
-3630 3627 0
3630 -3290 -3627 0
-3633 3297 0
-3633 3630 0
3633 -3297 -3630 0
-3636 3304 0
-3636 3633 0
3636 -3304 -3633 0
-3639 3311 0
-3639 3636 0
3639 -3311 -3636 0
-3642 3318 0
-3642 3639 0
3642 -3318 -3639 0
-3645 3325 0
-3645 3642 0
3645 -3325 -3642 0
-3648 3332 0
-3648 3645 0
3648 -3332 -3645 0
-3651 3339 0
-3651 3648 0
3651 -3339 -3648 0
-3654 3346 0
-3654 3651 0
3654 -3346 -3651 0
-3657 3353 0
-3657 3654 0
3657 -3353 -3654 0
-3660 3360 0
-3660 3657 0
3660 -3360 -3657 0
-3663 3367 0
-3663 3660 0
3663 -3367 -3660 0
-3666 3374 0
-3666 3663 0
3666 -3374 -3663 0
-3669 3381 0
-3669 3666 0
3669 -3381 -3666 0
-3672 3388 0
-3672 3669 0
3672 -3388 -3669 0
-3675 3395 0
-3675 3672 0
3675 -3395 -3672 0
-3678 3402 0
-3678 3675 0
3678 -3402 -3675 0
-3681 3409 0
-3681 3678 0
3681 -3409 -3678 0
-3684 3416 0
-3684 3681 0
3684 -3416 -3681 0
-3687 3423 0
-3687 3684 0
3687 -3423 -3684 0
-3690 3430 0
-3690 3687 0
3690 -3430 -3687 0
-3693 3437 0
-3693 3690 0
3693 -3437 -3690 0
-3696 3444 0
-3696 3693 0
3696 -3444 -3693 0
-3699 3451 0
-3699 3696 0
3699 -3451 -3696 0
-3702 3458 0
-3702 3699 0
3702 -3458 -3699 0
-3705 3465 0
-3705 3702 0
3705 -3465 -3702 0
-3708 3472 0
-3708 3705 0
3708 -3472 -3705 0
-3711 3479 0
-3711 3708 0
3711 -3479 -3708 0
-3714 3486 0
-3714 3711 0
3714 -3486 -3711 0
-3717 3493 0
-3717 3714 0
3717 -3493 -3714 0
-3720 3500 0
-3720 3717 0
3720 -3500 -3717 0
-3723 3507 0
-3723 3720 0
3723 -3507 -3720 0
-3726 3514 0
-3726 3723 0
3726 -3514 -3723 0
-3729 3521 0
-3729 3726 0
3729 -3521 -3726 0
-3732 3528 0
-3732 3729 0
3732 -3528 -3729 0
-3735 3535 0
-3735 3732 0
3735 -3535 -3732 0
-3738 3542 0
-3738 3735 0
3738 -3542 -3735 0
-3741 3549 0
-3741 3738 0
3741 -3549 -3738 0
-3744 3556 0
-3744 3741 0
3744 -3556 -3741 0
-3745 -3556 0
-3745 -3741 0
3745 3556 3741 0
-3746 -3744 0
-3746 -3745 0
3746 3744 3745 0
-3933 3119 0
-3933 -3746 0
3933 -3119 3746 0
-3934 -3119 0
-3934 3746 0
3934 3119 -3746 0
-3935 -3933 0
-3935 -3934 0
3935 3933 3934 0
3118 -16688 0
-3118 16688 0
-3742 -3549 0
-3742 -3738 0
3742 3549 3738 0
-3743 -3741 0
-3743 -3742 0
3743 3741 3742 0
-3930 3118 0
-3930 -3743 0
3930 -3118 3743 0
-3931 -3118 0
-3931 3743 0
3931 3118 -3743 0
-3932 -3930 0
-3932 -3931 0
3932 3930 3931 0
3117 -16687 0
-3117 16687 0
-3739 -3542 0
-3739 -3735 0
3739 3542 3735 0
-3740 -3738 0
-3740 -3739 0
3740 3738 3739 0
-3927 3117 0
-3927 -3740 0
3927 -3117 3740 0
-3928 -3117 0
-3928 3740 0
3928 3117 -3740 0
-3929 -3927 0
-3929 -3928 0
3929 3927 3928 0
3116 -16686 0
-3116 16686 0
-3736 -3535 0
-3736 -3732 0
3736 3535 3732 0
-3737 -3735 0
-3737 -3736 0
3737 3735 3736 0
-3924 3116 0
-3924 -3737 0
3924 -3116 3737 0
-3925 -3116 0
-3925 3737 0
3925 3116 -3737 0
-3926 -3924 0
-3926 -3925 0
3926 3924 3925 0
3115 -16685 0
-3115 16685 0
-3733 -3528 0
-3733 -3729 0
3733 3528 3729 0
-3734 -3732 0
-3734 -3733 0
3734 3732 3733 0
-3921 3115 0
-3921 -3734 0
3921 -3115 3734 0
-3922 -3115 0
-3922 3734 0
3922 3115 -3734 0
-3923 -3921 0
-3923 -3922 0
3923 3921 3922 0
3114 -16684 0
-3114 16684 0
-3730 -3521 0
-3730 -3726 0
3730 3521 3726 0
-3731 -3729 0
-3731 -3730 0
3731 3729 3730 0
-3918 3114 0
-3918 -3731 0
3918 -3114 3731 0
-3919 -3114 0
-3919 3731 0
3919 3114 -3731 0
-3920 -3918 0
-3920 -3919 0
3920 3918 3919 0
3113 -16683 0
-3113 16683 0
-3727 -3514 0
-3727 -3723 0
3727 3514 3723 0
-3728 -3726 0
-3728 -3727 0
3728 3726 3727 0
-3915 3113 0
-3915 -3728 0
3915 -3113 3728 0
-3916 -3113 0
-3916 3728 0
3916 3113 -3728 0
-3917 -3915 0
-3917 -3916 0
3917 3915 3916 0
3112 -16682 0
-3112 16682 0
-3724 -3507 0
-3724 -3720 0
3724 3507 3720 0
-3725 -3723 0
-3725 -3724 0
3725 3723 3724 0
-3912 3112 0
-3912 -3725 0
3912 -3112 3725 0
-3913 -3112 0
-3913 3725 0
3913 3112 -3725 0
-3914 -3912 0
-3914 -3913 0
3914 3912 3913 0
3111 -16681 0
-3111 16681 0
-3721 -3500 0
-3721 -3717 0
3721 3500 3717 0
-3722 -3720 0
-3722 -3721 0
3722 3720 3721 0
-3909 3111 0
-3909 -3722 0
3909 -3111 3722 0
-3910 -3111 0
-3910 3722 0
3910 3111 -3722 0
-3911 -3909 0
-3911 -3910 0
3911 3909 3910 0
3110 -16680 0
-3110 16680 0
-3718 -3493 0
-3718 -3714 0
3718 3493 3714 0
-3719 -3717 0
-3719 -3718 0
3719 3717 3718 0
-3906 3110 0
-3906 -3719 0
3906 -3110 3719 0
-3907 -3110 0
-3907 3719 0
3907 3110 -3719 0
-3908 -3906 0
-3908 -3907 0
3908 3906 3907 0
3109 -16679 0
-3109 16679 0
-3715 -3486 0
-3715 -3711 0
3715 3486 3711 0
-3716 -3714 0
-3716 -3715 0
3716 3714 3715 0
-3903 3109 0
-3903 -3716 0
3903 -3109 3716 0
-3904 -3109 0
-3904 3716 0
3904 3109 -3716 0
-3905 -3903 0
-3905 -3904 0
3905 3903 3904 0
3108 -16678 0
-3108 16678 0
-3712 -3479 0
-3712 -3708 0
3712 3479 3708 0
-3713 -3711 0
-3713 -3712 0
3713 3711 3712 0
-3900 3108 0
-3900 -3713 0
3900 -3108 3713 0
-3901 -3108 0
-3901 3713 0
3901 3108 -3713 0
-3902 -3900 0
-3902 -3901 0
3902 3900 3901 0
3107 -16677 0
-3107 16677 0
-3709 -3472 0
-3709 -3705 0
3709 3472 3705 0
-3710 -3708 0
-3710 -3709 0
3710 3708 3709 0
-3897 3107 0
-3897 -3710 0
3897 -3107 3710 0
-3898 -3107 0
-3898 3710 0
3898 3107 -3710 0
-3899 -3897 0
-3899 -3898 0
3899 3897 3898 0
3106 -16676 0
-3106 16676 0
-3706 -3465 0
-3706 -3702 0
3706 3465 3702 0
-3707 -3705 0
-3707 -3706 0
3707 3705 3706 0
-3894 3106 0
-3894 -3707 0
3894 -3106 3707 0
-3895 -3106 0
-3895 3707 0
3895 3106 -3707 0
-3896 -3894 0
-3896 -3895 0
3896 3894 3895 0
3105 -16675 0
-3105 16675 0
-3703 -3458 0
-3703 -3699 0
3703 3458 3699 0
-3704 -3702 0
-3704 -3703 0
3704 3702 3703 0
-3891 3105 0
-3891 -3704 0
3891 -3105 3704 0
-3892 -3105 0
-3892 3704 0
3892 3105 -3704 0
-3893 -3891 0
-3893 -3892 0
3893 3891 3892 0
3104 -16674 0
-3104 16674 0
-3700 -3451 0
-3700 -3696 0
3700 3451 3696 0
-3701 -3699 0
-3701 -3700 0
3701 3699 3700 0
-3888 3104 0
-3888 -3701 0
3888 -3104 3701 0
-3889 -3104 0
-3889 3701 0
3889 3104 -3701 0
-3890 -3888 0
-3890 -3889 0
3890 3888 3889 0
3103 -16673 0
-3103 16673 0
-3697 -3444 0
-3697 -3693 0
3697 3444 3693 0
-3698 -3696 0
-3698 -3697 0
3698 3696 3697 0
-3885 3103 0
-3885 -3698 0
3885 -3103 3698 0
-3886 -3103 0
-3886 3698 0
3886 3103 -3698 0
-3887 -3885 0
-3887 -3886 0
3887 3885 3886 0
3102 -16672 0
-3102 16672 0
-3694 -3437 0
-3694 -3690 0
3694 3437 3690 0
-3695 -3693 0
-3695 -3694 0
3695 3693 3694 0
-3882 3102 0
-3882 -3695 0
3882 -3102 3695 0
-3883 -3102 0
-3883 3695 0
3883 3102 -3695 0
-3884 -3882 0
-3884 -3883 0
3884 3882 3883 0
3101 -16671 0
-3101 16671 0
-3691 -3430 0
-3691 -3687 0
3691 3430 3687 0
-3692 -3690 0
-3692 -3691 0
3692 3690 3691 0
-3879 3101 0
-3879 -3692 0
3879 -3101 3692 0
-3880 -3101 0
-3880 3692 0
3880 3101 -3692 0
-3881 -3879 0
-3881 -3880 0
3881 3879 3880 0
3100 -16670 0
-3100 16670 0
-3688 -3423 0
-3688 -3684 0
3688 3423 3684 0
-3689 -3687 0
-3689 -3688 0
3689 3687 3688 0
-3876 3100 0
-3876 -3689 0
3876 -3100 3689 0
-3877 -3100 0
-3877 3689 0
3877 3100 -3689 0
-3878 -3876 0
-3878 -3877 0
3878 3876 3877 0
3099 -16669 0
-3099 16669 0
-3685 -3416 0
-3685 -3681 0
3685 3416 3681 0
-3686 -3684 0
-3686 -3685 0
3686 3684 3685 0
-3873 3099 0
-3873 -3686 0
3873 -3099 3686 0
-3874 -3099 0
-3874 3686 0
3874 3099 -3686 0
-3875 -3873 0
-3875 -3874 0
3875 3873 3874 0
3098 -16668 0
-3098 16668 0
-3682 -3409 0
-3682 -3678 0
3682 3409 3678 0
-3683 -3681 0
-3683 -3682 0
3683 3681 3682 0
-3870 3098 0
-3870 -3683 0
3870 -3098 3683 0
-3871 -3098 0
-3871 3683 0
3871 3098 -3683 0
-3872 -3870 0
-3872 -3871 0
3872 3870 3871 0
3097 -16667 0
-3097 16667 0
-3679 -3402 0
-3679 -3675 0
3679 3402 3675 0
-3680 -3678 0
-3680 -3679 0
3680 3678 3679 0
-3867 3097 0
-3867 -3680 0
3867 -3097 3680 0
-3868 -3097 0
-3868 3680 0
3868 3097 -3680 0
-3869 -3867 0
-3869 -3868 0
3869 3867 3868 0
3096 -16666 0
-3096 16666 0
-3676 -3395 0
-3676 -3672 0
3676 3395 3672 0
-3677 -3675 0
-3677 -3676 0
3677 3675 3676 0
-3864 3096 0
-3864 -3677 0
3864 -3096 3677 0
-3865 -3096 0
-3865 3677 0
3865 3096 -3677 0
-3866 -3864 0
-3866 -3865 0
3866 3864 3865 0
3095 -16665 0
-3095 16665 0
-3673 -3388 0
-3673 -3669 0
3673 3388 3669 0
-3674 -3672 0
-3674 -3673 0
3674 3672 3673 0
-3861 3095 0
-3861 -3674 0
3861 -3095 3674 0
-3862 -3095 0
-3862 3674 0
3862 3095 -3674 0
-3863 -3861 0
-3863 -3862 0
3863 3861 3862 0
3094 -16664 0
-3094 16664 0
-3670 -3381 0
-3670 -3666 0
3670 3381 3666 0
-3671 -3669 0
-3671 -3670 0
3671 3669 3670 0
-3858 3094 0
-3858 -3671 0
3858 -3094 3671 0
-3859 -3094 0
-3859 3671 0
3859 3094 -3671 0
-3860 -3858 0
-3860 -3859 0
3860 3858 3859 0
3093 -16663 0
-3093 16663 0
-3667 -3374 0
-3667 -3663 0
3667 3374 3663 0
-3668 -3666 0
-3668 -3667 0
3668 3666 3667 0
-3855 3093 0
-3855 -3668 0
3855 -3093 3668 0
-3856 -3093 0
-3856 3668 0
3856 3093 -3668 0
-3857 -3855 0
-3857 -3856 0
3857 3855 3856 0
3092 -16662 0
-3092 16662 0
-3664 -3367 0
-3664 -3660 0
3664 3367 3660 0
-3665 -3663 0
-3665 -3664 0
3665 3663 3664 0
-3852 3092 0
-3852 -3665 0
3852 -3092 3665 0
-3853 -3092 0
-3853 3665 0
3853 3092 -3665 0
-3854 -3852 0
-3854 -3853 0
3854 3852 3853 0
3091 -16661 0
-3091 16661 0
-3661 -3360 0
-3661 -3657 0
3661 3360 3657 0
-3662 -3660 0
-3662 -3661 0
3662 3660 3661 0
-3849 3091 0
-3849 -3662 0
3849 -3091 3662 0
-3850 -3091 0
-3850 3662 0
3850 3091 -3662 0
-3851 -3849 0
-3851 -3850 0
3851 3849 3850 0
3090 -16660 0
-3090 16660 0
-3658 -3353 0
-3658 -3654 0
3658 3353 3654 0
-3659 -3657 0
-3659 -3658 0
3659 3657 3658 0
-3846 3090 0
-3846 -3659 0
3846 -3090 3659 0
-3847 -3090 0
-3847 3659 0
3847 3090 -3659 0
-3848 -3846 0
-3848 -3847 0
3848 3846 3847 0
3089 -16659 0
-3089 16659 0
-3655 -3346 0
-3655 -3651 0
3655 3346 3651 0
-3656 -3654 0
-3656 -3655 0
3656 3654 3655 0
-3843 3089 0
-3843 -3656 0
3843 -3089 3656 0
-3844 -3089 0
-3844 3656 0
3844 3089 -3656 0
-3845 -3843 0
-3845 -3844 0
3845 3843 3844 0
3088 -16658 0
-3088 16658 0
-3652 -3339 0
-3652 -3648 0
3652 3339 3648 0
-3653 -3651 0
-3653 -3652 0
3653 3651 3652 0
-3840 3088 0
-3840 -3653 0
3840 -3088 3653 0
-3841 -3088 0
-3841 3653 0
3841 3088 -3653 0
-3842 -3840 0
-3842 -3841 0
3842 3840 3841 0
3087 -16657 0
-3087 16657 0
-3649 -3332 0
-3649 -3645 0
3649 3332 3645 0
-3650 -3648 0
-3650 -3649 0
3650 3648 3649 0
-3837 3087 0
-3837 -3650 0
3837 -3087 3650 0
-3838 -3087 0
-3838 3650 0
3838 3087 -3650 0
-3839 -3837 0
-3839 -3838 0
3839 3837 3838 0
3086 -16656 0
-3086 16656 0
-3646 -3325 0
-3646 -3642 0
3646 3325 3642 0
-3647 -3645 0
-3647 -3646 0
3647 3645 3646 0
-3834 3086 0
-3834 -3647 0
3834 -3086 3647 0
-3835 -3086 0
-3835 3647 0
3835 3086 -3647 0
-3836 -3834 0
-3836 -3835 0
3836 3834 3835 0
3085 -16655 0
-3085 16655 0
-3643 -3318 0
-3643 -3639 0
3643 3318 3639 0
-3644 -3642 0
-3644 -3643 0
3644 3642 3643 0
-3831 3085 0
-3831 -3644 0
3831 -3085 3644 0
-3832 -3085 0
-3832 3644 0
3832 3085 -3644 0
-3833 -3831 0
-3833 -3832 0
3833 3831 3832 0
3084 -16654 0
-3084 16654 0
-3640 -3311 0
-3640 -3636 0
3640 3311 3636 0
-3641 -3639 0
-3641 -3640 0
3641 3639 3640 0
-3828 3084 0
-3828 -3641 0
3828 -3084 3641 0
-3829 -3084 0
-3829 3641 0
3829 3084 -3641 0
-3830 -3828 0
-3830 -3829 0
3830 3828 3829 0
3083 -16653 0
-3083 16653 0
-3637 -3304 0
-3637 -3633 0
3637 3304 3633 0
-3638 -3636 0
-3638 -3637 0
3638 3636 3637 0
-3825 3083 0
-3825 -3638 0
3825 -3083 3638 0
-3826 -3083 0
-3826 3638 0
3826 3083 -3638 0
-3827 -3825 0
-3827 -3826 0
3827 3825 3826 0
3082 -16652 0
-3082 16652 0
-3634 -3297 0
-3634 -3630 0
3634 3297 3630 0
-3635 -3633 0
-3635 -3634 0
3635 3633 3634 0
-3822 3082 0
-3822 -3635 0
3822 -3082 3635 0
-3823 -3082 0
-3823 3635 0
3823 3082 -3635 0
-3824 -3822 0
-3824 -3823 0
3824 3822 3823 0
3081 -16651 0
-3081 16651 0
-3631 -3290 0
-3631 -3627 0
3631 3290 3627 0
-3632 -3630 0
-3632 -3631 0
3632 3630 3631 0
-3819 3081 0
-3819 -3632 0
3819 -3081 3632 0
-3820 -3081 0
-3820 3632 0
3820 3081 -3632 0
-3821 -3819 0
-3821 -3820 0
3821 3819 3820 0
3080 -16650 0
-3080 16650 0
-3628 -3283 0
-3628 -3624 0
3628 3283 3624 0
-3629 -3627 0
-3629 -3628 0
3629 3627 3628 0
-3816 3080 0
-3816 -3629 0
3816 -3080 3629 0
-3817 -3080 0
-3817 3629 0
3817 3080 -3629 0
-3818 -3816 0
-3818 -3817 0
3818 3816 3817 0
3079 -16649 0
-3079 16649 0
-3625 -3276 0
-3625 -3621 0
3625 3276 3621 0
-3626 -3624 0
-3626 -3625 0
3626 3624 3625 0
-3813 3079 0
-3813 -3626 0
3813 -3079 3626 0
-3814 -3079 0
-3814 3626 0
3814 3079 -3626 0
-3815 -3813 0
-3815 -3814 0
3815 3813 3814 0
3078 -16648 0
-3078 16648 0
-3622 -3269 0
-3622 -3618 0
3622 3269 3618 0
-3623 -3621 0
-3623 -3622 0
3623 3621 3622 0
-3810 3078 0
-3810 -3623 0
3810 -3078 3623 0
-3811 -3078 0
-3811 3623 0
3811 3078 -3623 0
-3812 -3810 0
-3812 -3811 0
3812 3810 3811 0
3077 -16647 0
-3077 16647 0
-3619 -3262 0
-3619 -3615 0
3619 3262 3615 0
-3620 -3618 0
-3620 -3619 0
3620 3618 3619 0
-3807 3077 0
-3807 -3620 0
3807 -3077 3620 0
-3808 -3077 0
-3808 3620 0
3808 3077 -3620 0
-3809 -3807 0
-3809 -3808 0
3809 3807 3808 0
3076 -16646 0
-3076 16646 0
-3616 -3255 0
-3616 -3612 0
3616 3255 3612 0
-3617 -3615 0
-3617 -3616 0
3617 3615 3616 0
-3804 3076 0
-3804 -3617 0
3804 -3076 3617 0
-3805 -3076 0
-3805 3617 0
3805 3076 -3617 0
-3806 -3804 0
-3806 -3805 0
3806 3804 3805 0
3075 -16645 0
-3075 16645 0
-3613 -3248 0
-3613 -3609 0
3613 3248 3609 0
-3614 -3612 0
-3614 -3613 0
3614 3612 3613 0
-3801 3075 0
-3801 -3614 0
3801 -3075 3614 0
-3802 -3075 0
-3802 3614 0
3802 3075 -3614 0
-3803 -3801 0
-3803 -3802 0
3803 3801 3802 0
3074 -16644 0
-3074 16644 0
-3610 -3241 0
-3610 -3606 0
3610 3241 3606 0
-3611 -3609 0
-3611 -3610 0
3611 3609 3610 0
-3798 3074 0
-3798 -3611 0
3798 -3074 3611 0
-3799 -3074 0
-3799 3611 0
3799 3074 -3611 0
-3800 -3798 0
-3800 -3799 0
3800 3798 3799 0
3073 -16643 0
-3073 16643 0
-3607 -3234 0
-3607 -3603 0
3607 3234 3603 0
-3608 -3606 0
-3608 -3607 0
3608 3606 3607 0
-3795 3073 0
-3795 -3608 0
3795 -3073 3608 0
-3796 -3073 0
-3796 3608 0
3796 3073 -3608 0
-3797 -3795 0
-3797 -3796 0
3797 3795 3796 0
3072 -16642 0
-3072 16642 0
-3604 -3227 0
-3604 -3600 0
3604 3227 3600 0
-3605 -3603 0
-3605 -3604 0
3605 3603 3604 0
-3792 3072 0
-3792 -3605 0
3792 -3072 3605 0
-3793 -3072 0
-3793 3605 0
3793 3072 -3605 0
-3794 -3792 0
-3794 -3793 0
3794 3792 3793 0
3071 -16641 0
-3071 16641 0
-3601 -3220 0
-3601 -3597 0
3601 3220 3597 0
-3602 -3600 0
-3602 -3601 0
3602 3600 3601 0
-3789 3071 0
-3789 -3602 0
3789 -3071 3602 0
-3790 -3071 0
-3790 3602 0
3790 3071 -3602 0
-3791 -3789 0
-3791 -3790 0
3791 3789 3790 0
3070 -16640 0
-3070 16640 0
-3598 -3213 0
-3598 -3594 0
3598 3213 3594 0
-3599 -3597 0
-3599 -3598 0
3599 3597 3598 0
-3786 3070 0
-3786 -3599 0
3786 -3070 3599 0
-3787 -3070 0
-3787 3599 0
3787 3070 -3599 0
-3788 -3786 0
-3788 -3787 0
3788 3786 3787 0
3069 -16639 0
-3069 16639 0
-3595 -3206 0
-3595 -3591 0
3595 3206 3591 0
-3596 -3594 0
-3596 -3595 0
3596 3594 3595 0
-3783 3069 0
-3783 -3596 0
3783 -3069 3596 0
-3784 -3069 0
-3784 3596 0
3784 3069 -3596 0
-3785 -3783 0
-3785 -3784 0
3785 3783 3784 0
3068 -16638 0
-3068 16638 0
-3592 -3199 0
-3592 -3588 0
3592 3199 3588 0
-3593 -3591 0
-3593 -3592 0
3593 3591 3592 0
-3780 3068 0
-3780 -3593 0
3780 -3068 3593 0
-3781 -3068 0
-3781 3593 0
3781 3068 -3593 0
-3782 -3780 0
-3782 -3781 0
3782 3780 3781 0
3067 -16637 0
-3067 16637 0
-3589 -3192 0
-3589 -3585 0
3589 3192 3585 0
-3590 -3588 0
-3590 -3589 0
3590 3588 3589 0
-3777 3067 0
-3777 -3590 0
3777 -3067 3590 0
-3778 -3067 0
-3778 3590 0
3778 3067 -3590 0
-3779 -3777 0
-3779 -3778 0
3779 3777 3778 0
3066 -16636 0
-3066 16636 0
-3586 -3185 0
-3586 -3582 0
3586 3185 3582 0
-3587 -3585 0
-3587 -3586 0
3587 3585 3586 0
-3774 3066 0
-3774 -3587 0
3774 -3066 3587 0
-3775 -3066 0
-3775 3587 0
3775 3066 -3587 0
-3776 -3774 0
-3776 -3775 0
3776 3774 3775 0
3065 -16635 0
-3065 16635 0
-3583 -3178 0
-3583 -3579 0
3583 3178 3579 0
-3584 -3582 0
-3584 -3583 0
3584 3582 3583 0
-3771 3065 0
-3771 -3584 0
3771 -3065 3584 0
-3772 -3065 0
-3772 3584 0
3772 3065 -3584 0
-3773 -3771 0
-3773 -3772 0
3773 3771 3772 0
3064 -16634 0
-3064 16634 0
-3580 -3171 0
-3580 -3576 0
3580 3171 3576 0
-3581 -3579 0
-3581 -3580 0
3581 3579 3580 0
-3768 3064 0
-3768 -3581 0
3768 -3064 3581 0
-3769 -3064 0
-3769 3581 0
3769 3064 -3581 0
-3770 -3768 0
-3770 -3769 0
3770 3768 3769 0
3063 -16633 0
-3063 16633 0
-3577 -3164 0
-3577 -3573 0
3577 3164 3573 0
-3578 -3576 0
-3578 -3577 0
3578 3576 3577 0
-3765 3063 0
-3765 -3578 0
3765 -3063 3578 0
-3766 -3063 0
-3766 3578 0
3766 3063 -3578 0
-3767 -3765 0
-3767 -3766 0
3767 3765 3766 0
3062 -16632 0
-3062 16632 0
-3574 -3157 0
-3574 -3570 0
3574 3157 3570 0
-3575 -3573 0
-3575 -3574 0
3575 3573 3574 0
-3762 3062 0
-3762 -3575 0
3762 -3062 3575 0
-3763 -3062 0
-3763 3575 0
3763 3062 -3575 0
-3764 -3762 0
-3764 -3763 0
3764 3762 3763 0
3061 -16631 0
-3061 16631 0
-3571 -3150 0
-3571 -3567 0
3571 3150 3567 0
-3572 -3570 0
-3572 -3571 0
3572 3570 3571 0
-3759 3061 0
-3759 -3572 0
3759 -3061 3572 0
-3760 -3061 0
-3760 3572 0
3760 3061 -3572 0
-3761 -3759 0
-3761 -3760 0
3761 3759 3760 0
3060 -16630 0
-3060 16630 0
-3568 -3143 0
-3568 -3564 0
3568 3143 3564 0
-3569 -3567 0
-3569 -3568 0
3569 3567 3568 0
-3756 3060 0
-3756 -3569 0
3756 -3060 3569 0
-3757 -3060 0
-3757 3569 0
3757 3060 -3569 0
-3758 -3756 0
-3758 -3757 0
3758 3756 3757 0
3059 -16629 0
-3059 16629 0
-3565 -3136 0
-3565 -3561 0
3565 3136 3561 0
-3566 -3564 0
-3566 -3565 0
3566 3564 3565 0
-3753 3059 0
-3753 -3566 0
3753 -3059 3566 0
-3754 -3059 0
-3754 3566 0
3754 3059 -3566 0
-3755 -3753 0
-3755 -3754 0
3755 3753 3754 0
3057 -16627 0
-3057 16627 0
-3559 -1242 0
-3559 -3123 0
3559 1242 3123 0
-3560 -3558 0
-3560 -3559 0
3560 3558 3559 0
-3747 3057 0
-3747 -3560 0
3747 -3057 3560 0
-3748 -3057 0
-3748 3560 0
3748 3057 -3560 0
-3749 -3747 0
-3749 -3748 0
3749 3747 3748 0
3058 -16628 0
-3058 16628 0
-3562 -3129 0
-3562 -3558 0
3562 3129 3558 0
-3563 -3561 0
-3563 -3562 0
3563 3561 3562 0
-3750 3058 0
-3750 -3563 0
3750 -3058 3563 0
-3751 -3058 0
-3751 3563 0
3751 3058 -3563 0
-3752 -3750 0
-3752 -3751 0
3752 3750 3751 0
-3936 3749 0
-3936 3752 0
3936 -3749 -3752 0
-3937 3755 0
-3937 3936 0
3937 -3755 -3936 0
-3938 3758 0
-3938 3937 0
3938 -3758 -3937 0
-3939 3761 0
-3939 3938 0
3939 -3761 -3938 0
-3940 3764 0
-3940 3939 0
3940 -3764 -3939 0
-3941 3767 0
-3941 3940 0
3941 -3767 -3940 0
-3942 3770 0
-3942 3941 0
3942 -3770 -3941 0
-3943 3773 0
-3943 3942 0
3943 -3773 -3942 0
-3944 3776 0
-3944 3943 0
3944 -3776 -3943 0
-3945 3779 0
-3945 3944 0
3945 -3779 -3944 0
-3946 3782 0
-3946 3945 0
3946 -3782 -3945 0
-3947 3785 0
-3947 3946 0
3947 -3785 -3946 0
-3948 3788 0
-3948 3947 0
3948 -3788 -3947 0
-3949 3791 0
-3949 3948 0
3949 -3791 -3948 0
-3950 3794 0
-3950 3949 0
3950 -3794 -3949 0
-3951 3797 0
-3951 3950 0
3951 -3797 -3950 0
-3952 3800 0
-3952 3951 0
3952 -3800 -3951 0
-3953 3803 0
-3953 3952 0
3953 -3803 -3952 0
-3954 3806 0
-3954 3953 0
3954 -3806 -3953 0
-3955 3809 0
-3955 3954 0
3955 -3809 -3954 0
-3956 3812 0
-3956 3955 0
3956 -3812 -3955 0
-3957 3815 0
-3957 3956 0
3957 -3815 -3956 0
-3958 3818 0
-3958 3957 0
3958 -3818 -3957 0
-3959 3821 0
-3959 3958 0
3959 -3821 -3958 0
-3960 3824 0
-3960 3959 0
3960 -3824 -3959 0
-3961 3827 0
-3961 3960 0
3961 -3827 -3960 0
-3962 3830 0
-3962 3961 0
3962 -3830 -3961 0
-3963 3833 0
-3963 3962 0
3963 -3833 -3962 0
-3964 3836 0
-3964 3963 0
3964 -3836 -3963 0
-3965 3839 0
-3965 3964 0
3965 -3839 -3964 0
-3966 3842 0
-3966 3965 0
3966 -3842 -3965 0
-3967 3845 0
-3967 3966 0
3967 -3845 -3966 0
-3968 3848 0
-3968 3967 0
3968 -3848 -3967 0
-3969 3851 0
-3969 3968 0
3969 -3851 -3968 0
-3970 3854 0
-3970 3969 0
3970 -3854 -3969 0
-3971 3857 0
-3971 3970 0
3971 -3857 -3970 0
-3972 3860 0
-3972 3971 0
3972 -3860 -3971 0
-3973 3863 0
-3973 3972 0
3973 -3863 -3972 0
-3974 3866 0
-3974 3973 0
3974 -3866 -3973 0
-3975 3869 0
-3975 3974 0
3975 -3869 -3974 0
-3976 3872 0
-3976 3975 0
3976 -3872 -3975 0
-3977 3875 0
-3977 3976 0
3977 -3875 -3976 0
-3978 3878 0
-3978 3977 0
3978 -3878 -3977 0
-3979 3881 0
-3979 3978 0
3979 -3881 -3978 0
-3980 3884 0
-3980 3979 0
3980 -3884 -3979 0
-3981 3887 0
-3981 3980 0
3981 -3887 -3980 0
-3982 3890 0
-3982 3981 0
3982 -3890 -3981 0
-3983 3893 0
-3983 3982 0
3983 -3893 -3982 0
-3984 3896 0
-3984 3983 0
3984 -3896 -3983 0
-3985 3899 0
-3985 3984 0
3985 -3899 -3984 0
-3986 3902 0
-3986 3985 0
3986 -3902 -3985 0
-3987 3905 0
-3987 3986 0
3987 -3905 -3986 0
-3988 3908 0
-3988 3987 0
3988 -3908 -3987 0
-3989 3911 0
-3989 3988 0
3989 -3911 -3988 0
-3990 3914 0
-3990 3989 0
3990 -3914 -3989 0
-3991 3917 0
-3991 3990 0
3991 -3917 -3990 0
-3992 3920 0
-3992 3991 0
3992 -3920 -3991 0
-3993 3923 0
-3993 3992 0
3993 -3923 -3992 0
-3994 3926 0
-3994 3993 0
3994 -3926 -3993 0
-3995 3929 0
-3995 3994 0
3995 -3929 -3994 0
-3996 3932 0
-3996 3995 0
3996 -3932 -3995 0
-3997 3935 0
-3997 3996 0
3997 -3935 -3996 0
-3998 -3120 0
-3998 3997 0
3998 3120 -3997 0
-3999 2451 0
-3999 -3998 0
3999 -2451 3998 0
-4000 3056 0
-4000 -3999 0
4000 -3056 3999 0
-4187 -2556 0
-4187 3119 0
4187 2556 -3119 0
-4188 2556 0
-4188 -3119 0
4188 -2556 3119 0
-4189 -4187 0
-4189 -4188 0
4189 4187 4188 0
-4184 -2555 0
-4184 3118 0
4184 2555 -3118 0
-4185 2555 0
-4185 -3118 0
4185 -2555 3118 0
-4186 -4184 0
-4186 -4185 0
4186 4184 4185 0
-4181 -2554 0
-4181 3117 0
4181 2554 -3117 0
-4182 2554 0
-4182 -3117 0
4182 -2554 3117 0
-4183 -4181 0
-4183 -4182 0
4183 4181 4182 0
-4178 -2553 0
-4178 3116 0
4178 2553 -3116 0
-4179 2553 0
-4179 -3116 0
4179 -2553 3116 0
-4180 -4178 0
-4180 -4179 0
4180 4178 4179 0
-4175 -2552 0
-4175 3115 0
4175 2552 -3115 0
-4176 2552 0
-4176 -3115 0
4176 -2552 3115 0
-4177 -4175 0
-4177 -4176 0
4177 4175 4176 0
-4172 -2551 0
-4172 3114 0
4172 2551 -3114 0
-4173 2551 0
-4173 -3114 0
4173 -2551 3114 0
-4174 -4172 0
-4174 -4173 0
4174 4172 4173 0
-4169 -2550 0
-4169 3113 0
4169 2550 -3113 0
-4170 2550 0
-4170 -3113 0
4170 -2550 3113 0
-4171 -4169 0
-4171 -4170 0
4171 4169 4170 0
-4166 -2549 0
-4166 3112 0
4166 2549 -3112 0
-4167 2549 0
-4167 -3112 0
4167 -2549 3112 0
-4168 -4166 0
-4168 -4167 0
4168 4166 4167 0
-4163 -2548 0
-4163 3111 0
4163 2548 -3111 0
-4164 2548 0
-4164 -3111 0
4164 -2548 3111 0
-4165 -4163 0
-4165 -4164 0
4165 4163 4164 0
-4160 -2547 0
-4160 3110 0
4160 2547 -3110 0
-4161 2547 0
-4161 -3110 0
4161 -2547 3110 0
-4162 -4160 0
-4162 -4161 0
4162 4160 4161 0
-4157 -2546 0
-4157 3109 0
4157 2546 -3109 0
-4158 2546 0
-4158 -3109 0
4158 -2546 3109 0
-4159 -4157 0
-4159 -4158 0
4159 4157 4158 0
-4154 -2545 0
-4154 3108 0
4154 2545 -3108 0
-4155 2545 0
-4155 -3108 0
4155 -2545 3108 0
-4156 -4154 0
-4156 -4155 0
4156 4154 4155 0
-4151 -2544 0
-4151 3107 0
4151 2544 -3107 0
-4152 2544 0
-4152 -3107 0
4152 -2544 3107 0
-4153 -4151 0
-4153 -4152 0
4153 4151 4152 0
-4148 -2543 0
-4148 3106 0
4148 2543 -3106 0
-4149 2543 0
-4149 -3106 0
4149 -2543 3106 0
-4150 -4148 0
-4150 -4149 0
4150 4148 4149 0
-4145 -2542 0
-4145 3105 0
4145 2542 -3105 0
-4146 2542 0
-4146 -3105 0
4146 -2542 3105 0
-4147 -4145 0
-4147 -4146 0
4147 4145 4146 0
-4142 -2541 0
-4142 3104 0
4142 2541 -3104 0
-4143 2541 0
-4143 -3104 0
4143 -2541 3104 0
-4144 -4142 0
-4144 -4143 0
4144 4142 4143 0
-4139 -2540 0
-4139 3103 0
4139 2540 -3103 0
-4140 2540 0
-4140 -3103 0
4140 -2540 3103 0
-4141 -4139 0
-4141 -4140 0
4141 4139 4140 0
-4136 -2539 0
-4136 3102 0
4136 2539 -3102 0
-4137 2539 0
-4137 -3102 0
4137 -2539 3102 0
-4138 -4136 0
-4138 -4137 0
4138 4136 4137 0
-4133 -2538 0
-4133 3101 0
4133 2538 -3101 0
-4134 2538 0
-4134 -3101 0
4134 -2538 3101 0
-4135 -4133 0
-4135 -4134 0
4135 4133 4134 0
-4130 -2537 0
-4130 3100 0
4130 2537 -3100 0
-4131 2537 0
-4131 -3100 0
4131 -2537 3100 0
-4132 -4130 0
-4132 -4131 0
4132 4130 4131 0
-4127 -2536 0
-4127 3099 0
4127 2536 -3099 0
-4128 2536 0
-4128 -3099 0
4128 -2536 3099 0
-4129 -4127 0
-4129 -4128 0
4129 4127 4128 0
-4124 -2535 0
-4124 3098 0
4124 2535 -3098 0
-4125 2535 0
-4125 -3098 0
4125 -2535 3098 0
-4126 -4124 0
-4126 -4125 0
4126 4124 4125 0
-4121 -2534 0
-4121 3097 0
4121 2534 -3097 0
-4122 2534 0
-4122 -3097 0
4122 -2534 3097 0
-4123 -4121 0
-4123 -4122 0
4123 4121 4122 0
-4118 -2533 0
-4118 3096 0
4118 2533 -3096 0
-4119 2533 0
-4119 -3096 0
4119 -2533 3096 0
-4120 -4118 0
-4120 -4119 0
4120 4118 4119 0
-4115 -2532 0
-4115 3095 0
4115 2532 -3095 0
-4116 2532 0
-4116 -3095 0
4116 -2532 3095 0
-4117 -4115 0
-4117 -4116 0
4117 4115 4116 0
-4112 -2531 0
-4112 3094 0
4112 2531 -3094 0
-4113 2531 0
-4113 -3094 0
4113 -2531 3094 0
-4114 -4112 0
-4114 -4113 0
4114 4112 4113 0
-4109 -2530 0
-4109 3093 0
4109 2530 -3093 0
-4110 2530 0
-4110 -3093 0
4110 -2530 3093 0
-4111 -4109 0
-4111 -4110 0
4111 4109 4110 0
-4106 -2529 0
-4106 3092 0
4106 2529 -3092 0
-4107 2529 0
-4107 -3092 0
4107 -2529 3092 0
-4108 -4106 0
-4108 -4107 0
4108 4106 4107 0
-4103 -2528 0
-4103 3091 0
4103 2528 -3091 0
-4104 2528 0
-4104 -3091 0
4104 -2528 3091 0
-4105 -4103 0
-4105 -4104 0
4105 4103 4104 0
-4100 -2527 0
-4100 3090 0
4100 2527 -3090 0
-4101 2527 0
-4101 -3090 0
4101 -2527 3090 0
-4102 -4100 0
-4102 -4101 0
4102 4100 4101 0
-4097 -2526 0
-4097 3089 0
4097 2526 -3089 0
-4098 2526 0
-4098 -3089 0
4098 -2526 3089 0
-4099 -4097 0
-4099 -4098 0
4099 4097 4098 0
-4094 -2525 0
-4094 3088 0
4094 2525 -3088 0
-4095 2525 0
-4095 -3088 0
4095 -2525 3088 0
-4096 -4094 0
-4096 -4095 0
4096 4094 4095 0
-4091 -2524 0
-4091 3087 0
4091 2524 -3087 0
-4092 2524 0
-4092 -3087 0
4092 -2524 3087 0
-4093 -4091 0
-4093 -4092 0
4093 4091 4092 0
-4088 -2523 0
-4088 3086 0
4088 2523 -3086 0
-4089 2523 0
-4089 -3086 0
4089 -2523 3086 0
-4090 -4088 0
-4090 -4089 0
4090 4088 4089 0
-4085 -2522 0
-4085 3085 0
4085 2522 -3085 0
-4086 2522 0
-4086 -3085 0
4086 -2522 3085 0
-4087 -4085 0
-4087 -4086 0
4087 4085 4086 0
-4082 -2521 0
-4082 3084 0
4082 2521 -3084 0
-4083 2521 0
-4083 -3084 0
4083 -2521 3084 0
-4084 -4082 0
-4084 -4083 0
4084 4082 4083 0
-4079 -2520 0
-4079 3083 0
4079 2520 -3083 0
-4080 2520 0
-4080 -3083 0
4080 -2520 3083 0
-4081 -4079 0
-4081 -4080 0
4081 4079 4080 0
-4076 -2519 0
-4076 3082 0
4076 2519 -3082 0
-4077 2519 0
-4077 -3082 0
4077 -2519 3082 0
-4078 -4076 0
-4078 -4077 0
4078 4076 4077 0
-4073 -2518 0
-4073 3081 0
4073 2518 -3081 0
-4074 2518 0
-4074 -3081 0
4074 -2518 3081 0
-4075 -4073 0
-4075 -4074 0
4075 4073 4074 0
-4070 -2517 0
-4070 3080 0
4070 2517 -3080 0
-4071 2517 0
-4071 -3080 0
4071 -2517 3080 0
-4072 -4070 0
-4072 -4071 0
4072 4070 4071 0
-4067 -2516 0
-4067 3079 0
4067 2516 -3079 0
-4068 2516 0
-4068 -3079 0
4068 -2516 3079 0
-4069 -4067 0
-4069 -4068 0
4069 4067 4068 0
-4064 -2515 0
-4064 3078 0
4064 2515 -3078 0
-4065 2515 0
-4065 -3078 0
4065 -2515 3078 0
-4066 -4064 0
-4066 -4065 0
4066 4064 4065 0
-4061 -2514 0
-4061 3077 0
4061 2514 -3077 0
-4062 2514 0
-4062 -3077 0
4062 -2514 3077 0
-4063 -4061 0
-4063 -4062 0
4063 4061 4062 0
-4058 -2513 0
-4058 3076 0
4058 2513 -3076 0
-4059 2513 0
-4059 -3076 0
4059 -2513 3076 0
-4060 -4058 0
-4060 -4059 0
4060 4058 4059 0
-4055 -2512 0
-4055 3075 0
4055 2512 -3075 0
-4056 2512 0
-4056 -3075 0
4056 -2512 3075 0
-4057 -4055 0
-4057 -4056 0
4057 4055 4056 0
-4052 -2511 0
-4052 3074 0
4052 2511 -3074 0
-4053 2511 0
-4053 -3074 0
4053 -2511 3074 0
-4054 -4052 0
-4054 -4053 0
4054 4052 4053 0
-4049 -2510 0
-4049 3073 0
4049 2510 -3073 0
-4050 2510 0
-4050 -3073 0
4050 -2510 3073 0
-4051 -4049 0
-4051 -4050 0
4051 4049 4050 0
-4046 -2509 0
-4046 3072 0
4046 2509 -3072 0
-4047 2509 0
-4047 -3072 0
4047 -2509 3072 0
-4048 -4046 0
-4048 -4047 0
4048 4046 4047 0
-4043 -2508 0
-4043 3071 0
4043 2508 -3071 0
-4044 2508 0
-4044 -3071 0
4044 -2508 3071 0
-4045 -4043 0
-4045 -4044 0
4045 4043 4044 0
-4040 -2507 0
-4040 3070 0
4040 2507 -3070 0
-4041 2507 0
-4041 -3070 0
4041 -2507 3070 0
-4042 -4040 0
-4042 -4041 0
4042 4040 4041 0
-4037 -2506 0
-4037 3069 0
4037 2506 -3069 0
-4038 2506 0
-4038 -3069 0
4038 -2506 3069 0
-4039 -4037 0
-4039 -4038 0
4039 4037 4038 0
-4034 -2505 0
-4034 3068 0
4034 2505 -3068 0
-4035 2505 0
-4035 -3068 0
4035 -2505 3068 0
-4036 -4034 0
-4036 -4035 0
4036 4034 4035 0
-4031 -2504 0
-4031 3067 0
4031 2504 -3067 0
-4032 2504 0
-4032 -3067 0
4032 -2504 3067 0
-4033 -4031 0
-4033 -4032 0
4033 4031 4032 0
-4028 -2503 0
-4028 3066 0
4028 2503 -3066 0
-4029 2503 0
-4029 -3066 0
4029 -2503 3066 0
-4030 -4028 0
-4030 -4029 0
4030 4028 4029 0
-4025 -2502 0
-4025 3065 0
4025 2502 -3065 0
-4026 2502 0
-4026 -3065 0
4026 -2502 3065 0
-4027 -4025 0
-4027 -4026 0
4027 4025 4026 0
-4022 -2501 0
-4022 3064 0
4022 2501 -3064 0
-4023 2501 0
-4023 -3064 0
4023 -2501 3064 0
-4024 -4022 0
-4024 -4023 0
4024 4022 4023 0
-4019 -2500 0
-4019 3063 0
4019 2500 -3063 0
-4020 2500 0
-4020 -3063 0
4020 -2500 3063 0
-4021 -4019 0
-4021 -4020 0
4021 4019 4020 0
-4016 -2499 0
-4016 3062 0
4016 2499 -3062 0
-4017 2499 0
-4017 -3062 0
4017 -2499 3062 0
-4018 -4016 0
-4018 -4017 0
4018 4016 4017 0
-4013 -2498 0
-4013 3061 0
4013 2498 -3061 0
-4014 2498 0
-4014 -3061 0
4014 -2498 3061 0
-4015 -4013 0
-4015 -4014 0
4015 4013 4014 0
-4010 -2497 0
-4010 3060 0
4010 2497 -3060 0
-4011 2497 0
-4011 -3060 0
4011 -2497 3060 0
-4012 -4010 0
-4012 -4011 0
4012 4010 4011 0
-4007 -2496 0
-4007 3059 0
4007 2496 -3059 0
-4008 2496 0
-4008 -3059 0
4008 -2496 3059 0
-4009 -4007 0
-4009 -4008 0
4009 4007 4008 0
-4001 -2494 0
-4001 3057 0
4001 2494 -3057 0
-4002 2494 0
-4002 -3057 0
4002 -2494 3057 0
-4003 -4001 0
-4003 -4002 0
4003 4001 4002 0
-4004 -2495 0
-4004 3058 0
4004 2495 -3058 0
-4005 2495 0
-4005 -3058 0
4005 -2495 3058 0
-4006 -4004 0
-4006 -4005 0
4006 4004 4005 0
-4190 4003 0
-4190 4006 0
4190 -4003 -4006 0
-4191 4009 0
-4191 4190 0
4191 -4009 -4190 0
-4192 4012 0
-4192 4191 0
4192 -4012 -4191 0
-4193 4015 0
-4193 4192 0
4193 -4015 -4192 0
-4194 4018 0
-4194 4193 0
4194 -4018 -4193 0
-4195 4021 0
-4195 4194 0
4195 -4021 -4194 0
-4196 4024 0
-4196 4195 0
4196 -4024 -4195 0
-4197 4027 0
-4197 4196 0
4197 -4027 -4196 0
-4198 4030 0
-4198 4197 0
4198 -4030 -4197 0
-4199 4033 0
-4199 4198 0
4199 -4033 -4198 0
-4200 4036 0
-4200 4199 0
4200 -4036 -4199 0
-4201 4039 0
-4201 4200 0
4201 -4039 -4200 0
-4202 4042 0
-4202 4201 0
4202 -4042 -4201 0
-4203 4045 0
-4203 4202 0
4203 -4045 -4202 0
-4204 4048 0
-4204 4203 0
4204 -4048 -4203 0
-4205 4051 0
-4205 4204 0
4205 -4051 -4204 0
-4206 4054 0
-4206 4205 0
4206 -4054 -4205 0
-4207 4057 0
-4207 4206 0
4207 -4057 -4206 0
-4208 4060 0
-4208 4207 0
4208 -4060 -4207 0
-4209 4063 0
-4209 4208 0
4209 -4063 -4208 0
-4210 4066 0
-4210 4209 0
4210 -4066 -4209 0
-4211 4069 0
-4211 4210 0
4211 -4069 -4210 0
-4212 4072 0
-4212 4211 0
4212 -4072 -4211 0
-4213 4075 0
-4213 4212 0
4213 -4075 -4212 0
-4214 4078 0
-4214 4213 0
4214 -4078 -4213 0
-4215 4081 0
-4215 4214 0
4215 -4081 -4214 0
-4216 4084 0
-4216 4215 0
4216 -4084 -4215 0
-4217 4087 0
-4217 4216 0
4217 -4087 -4216 0
-4218 4090 0
-4218 4217 0
4218 -4090 -4217 0
-4219 4093 0
-4219 4218 0
4219 -4093 -4218 0
-4220 4096 0
-4220 4219 0
4220 -4096 -4219 0
-4221 4099 0
-4221 4220 0
4221 -4099 -4220 0
-4222 4102 0
-4222 4221 0
4222 -4102 -4221 0
-4223 4105 0
-4223 4222 0
4223 -4105 -4222 0
-4224 4108 0
-4224 4223 0
4224 -4108 -4223 0
-4225 4111 0
-4225 4224 0
4225 -4111 -4224 0
-4226 4114 0
-4226 4225 0
4226 -4114 -4225 0
-4227 4117 0
-4227 4226 0
4227 -4117 -4226 0
-4228 4120 0
-4228 4227 0
4228 -4120 -4227 0
-4229 4123 0
-4229 4228 0
4229 -4123 -4228 0
-4230 4126 0
-4230 4229 0
4230 -4126 -4229 0
-4231 4129 0
-4231 4230 0
4231 -4129 -4230 0
-4232 4132 0
-4232 4231 0
4232 -4132 -4231 0
-4233 4135 0
-4233 4232 0
4233 -4135 -4232 0
-4234 4138 0
-4234 4233 0
4234 -4138 -4233 0
-4235 4141 0
-4235 4234 0
4235 -4141 -4234 0
-4236 4144 0
-4236 4235 0
4236 -4144 -4235 0
-4237 4147 0
-4237 4236 0
4237 -4147 -4236 0
-4238 4150 0
-4238 4237 0
4238 -4150 -4237 0
-4239 4153 0
-4239 4238 0
4239 -4153 -4238 0
-4240 4156 0
-4240 4239 0
4240 -4156 -4239 0
-4241 4159 0
-4241 4240 0
4241 -4159 -4240 0
-4242 4162 0
-4242 4241 0
4242 -4162 -4241 0
-4243 4165 0
-4243 4242 0
4243 -4165 -4242 0
-4244 4168 0
-4244 4243 0
4244 -4168 -4243 0
-4245 4171 0
-4245 4244 0
4245 -4171 -4244 0
-4246 4174 0
-4246 4245 0
4246 -4174 -4245 0
-4247 4177 0
-4247 4246 0
4247 -4177 -4246 0
-4248 4180 0
-4248 4247 0
4248 -4180 -4247 0
-4249 4183 0
-4249 4248 0
4249 -4183 -4248 0
-4250 4186 0
-4250 4249 0
4250 -4186 -4249 0
-4251 4189 0
-4251 4250 0
4251 -4189 -4250 0
-4252 -3120 0
-4252 4251 0
4252 3120 -4251 0
-4253 -2451 0
-4253 -4252 0
4253 2451 4252 0
-4254 4000 0
-4254 -4253 0
4254 -4000 4253 0
4255 -16691 0
-4255 16691 0
-4256 -1748 0
-4256 4255 0
4256 1748 -4255 0
-4257 1748 0
-4257 -4255 0
4257 -1748 4255 0
-4258 -4256 0
-4258 -4257 0
4258 4256 4257 0
-4259 799 0
-4259 -4258 0
4259 -799 4258 0
-4260 4254 0
-4260 -4259 0
4260 -4254 4259 0
-4261 -875 0
-4261 4255 0
4261 875 -4255 0
-4262 875 0
-4262 -4255 0
4262 -875 4255 0
-4263 -4261 0
-4263 -4262 0
4263 4261 4262 0
-4264 -799 0
-4264 -4263 0
4264 799 4263 0
-4265 4260 0
-4265 -4264 0
4265 -4260 4264 0
4266 -16692 0
-4266 16692 0
-4267 -3560 0
-4267 4266 0
4267 3560 -4266 0
-4268 3560 0
-4268 -4266 0
4268 -3560 4266 0
-4269 -4267 0
-4269 -4268 0
4269 4267 4268 0
-4270 2451 0
-4270 -4269 0
4270 -2451 4269 0
-4271 4265 0
-4271 -4270 0
4271 -4265 4270 0
-4272 -4255 0
-4272 4266 0
4272 4255 -4266 0
-4273 4255 0
-4273 -4266 0
4273 -4255 4266 0
-4274 -4272 0
-4274 -4273 0
4274 4272 4273 0
-4275 -2451 0
-4275 -4274 0
4275 2451 4274 0
-4276 4271 0
-4276 -4275 0
4276 -4271 4275 0
4286 -16702 0
-4286 16702 0
4285 -16701 0
-4285 16701 0
4284 -16700 0
-4284 16700 0
4283 -16699 0
-4283 16699 0
4282 -16698 0
-4282 16698 0
4281 -16697 0
-4281 16697 0
4280 -16696 0
-4280 16696 0
4279 -16695 0
-4279 16695 0
4277 -16693 0
-4277 16693 0
4278 -16694 0
-4278 16694 0
-4287 4277 0
-4287 -4278 0
4287 -4277 4278 0
-4288 -4279 0
-4288 4287 0
4288 4279 -4287 0
-4289 -4280 0
-4289 4288 0
4289 4280 -4288 0
-4290 -4281 0
-4290 4289 0
4290 4281 -4289 0
-4291 -4282 0
-4291 4290 0
4291 4282 -4290 0
-4292 -4283 0
-4292 4291 0
4292 4283 -4291 0
-4293 -4284 0
-4293 4292 0
4293 4284 -4292 0
-4294 -4285 0
-4294 4293 0
4294 4285 -4293 0
-4295 -4286 0
-4295 4294 0
4295 4286 -4294 0
-4296 4266 0
-4296 -4295 0
4296 -4266 4295 0
-4297 4276 0
-4297 -4296 0
4297 -4276 4296 0
-4298 -4277 0
-4298 -4278 0
4298 4277 4278 0
-4299 -4279 0
-4299 4298 0
4299 4279 -4298 0
-4300 -4280 0
-4300 4299 0
4300 4280 -4299 0
-4301 -4281 0
-4301 4300 0
4301 4281 -4300 0
-4302 -4282 0
-4302 4301 0
4302 4282 -4301 0
-4303 -4283 0
-4303 4302 0
4303 4283 -4302 0
-4304 -4284 0
-4304 4303 0
4304 4284 -4303 0
-4305 -4285 0
-4305 4304 0
4305 4285 -4304 0
-4306 -4286 0
-4306 4305 0
4306 4286 -4305 0
-4307 -4266 0
-4307 -4306 0
4307 4266 4306 0
-4308 4297 0
-4308 -4307 0
4308 -4297 4307 0
4371 -16765 0
-4371 16765 0
4370 -16764 0
-4370 16764 0
-4555 -3746 0
-4555 4370 0
4555 3746 -4370 0
-4556 3746 0
-4556 -4370 0
4556 -3746 4370 0
-4557 -4555 0
-4557 -4556 0
4557 4555 4556 0
4369 -16763 0
-4369 16763 0
-4552 -3743 0
-4552 4369 0
4552 3743 -4369 0
-4553 3743 0
-4553 -4369 0
4553 -3743 4369 0
-4554 -4552 0
-4554 -4553 0
4554 4552 4553 0
4368 -16762 0
-4368 16762 0
-4549 -3740 0
-4549 4368 0
4549 3740 -4368 0
-4550 3740 0
-4550 -4368 0
4550 -3740 4368 0
-4551 -4549 0
-4551 -4550 0
4551 4549 4550 0
4367 -16761 0
-4367 16761 0
-4546 -3737 0
-4546 4367 0
4546 3737 -4367 0
-4547 3737 0
-4547 -4367 0
4547 -3737 4367 0
-4548 -4546 0
-4548 -4547 0
4548 4546 4547 0
4366 -16760 0
-4366 16760 0
-4543 -3734 0
-4543 4366 0
4543 3734 -4366 0
-4544 3734 0
-4544 -4366 0
4544 -3734 4366 0
-4545 -4543 0
-4545 -4544 0
4545 4543 4544 0
4365 -16759 0
-4365 16759 0
-4540 -3731 0
-4540 4365 0
4540 3731 -4365 0
-4541 3731 0
-4541 -4365 0
4541 -3731 4365 0
-4542 -4540 0
-4542 -4541 0
4542 4540 4541 0
4364 -16758 0
-4364 16758 0
-4537 -3728 0
-4537 4364 0
4537 3728 -4364 0
-4538 3728 0
-4538 -4364 0
4538 -3728 4364 0
-4539 -4537 0
-4539 -4538 0
4539 4537 4538 0
4363 -16757 0
-4363 16757 0
-4534 -3725 0
-4534 4363 0
4534 3725 -4363 0
-4535 3725 0
-4535 -4363 0
4535 -3725 4363 0
-4536 -4534 0
-4536 -4535 0
4536 4534 4535 0
4362 -16756 0
-4362 16756 0
-4531 -3722 0
-4531 4362 0
4531 3722 -4362 0
-4532 3722 0
-4532 -4362 0
4532 -3722 4362 0
-4533 -4531 0
-4533 -4532 0
4533 4531 4532 0
4361 -16755 0
-4361 16755 0
-4528 -3719 0
-4528 4361 0
4528 3719 -4361 0
-4529 3719 0
-4529 -4361 0
4529 -3719 4361 0
-4530 -4528 0
-4530 -4529 0
4530 4528 4529 0
4360 -16754 0
-4360 16754 0
-4525 -3716 0
-4525 4360 0
4525 3716 -4360 0
-4526 3716 0
-4526 -4360 0
4526 -3716 4360 0
-4527 -4525 0
-4527 -4526 0
4527 4525 4526 0
4359 -16753 0
-4359 16753 0
-4522 -3713 0
-4522 4359 0
4522 3713 -4359 0
-4523 3713 0
-4523 -4359 0
4523 -3713 4359 0
-4524 -4522 0
-4524 -4523 0
4524 4522 4523 0
4358 -16752 0
-4358 16752 0
-4519 -3710 0
-4519 4358 0
4519 3710 -4358 0
-4520 3710 0
-4520 -4358 0
4520 -3710 4358 0
-4521 -4519 0
-4521 -4520 0
4521 4519 4520 0
4357 -16751 0
-4357 16751 0
-4516 -3707 0
-4516 4357 0
4516 3707 -4357 0
-4517 3707 0
-4517 -4357 0
4517 -3707 4357 0
-4518 -4516 0
-4518 -4517 0
4518 4516 4517 0
4356 -16750 0
-4356 16750 0
-4513 -3704 0
-4513 4356 0
4513 3704 -4356 0
-4514 3704 0
-4514 -4356 0
4514 -3704 4356 0
-4515 -4513 0
-4515 -4514 0
4515 4513 4514 0
4355 -16749 0
-4355 16749 0
-4510 -3701 0
-4510 4355 0
4510 3701 -4355 0
-4511 3701 0
-4511 -4355 0
4511 -3701 4355 0
-4512 -4510 0
-4512 -4511 0
4512 4510 4511 0
4354 -16748 0
-4354 16748 0
-4507 -3698 0
-4507 4354 0
4507 3698 -4354 0
-4508 3698 0
-4508 -4354 0
4508 -3698 4354 0
-4509 -4507 0
-4509 -4508 0
4509 4507 4508 0
4353 -16747 0
-4353 16747 0
-4504 -3695 0
-4504 4353 0
4504 3695 -4353 0
-4505 3695 0
-4505 -4353 0
4505 -3695 4353 0
-4506 -4504 0
-4506 -4505 0
4506 4504 4505 0
4352 -16746 0
-4352 16746 0
-4501 -3692 0
-4501 4352 0
4501 3692 -4352 0
-4502 3692 0
-4502 -4352 0
4502 -3692 4352 0
-4503 -4501 0
-4503 -4502 0
4503 4501 4502 0
4351 -16745 0
-4351 16745 0
-4498 -3689 0
-4498 4351 0
4498 3689 -4351 0
-4499 3689 0
-4499 -4351 0
4499 -3689 4351 0
-4500 -4498 0
-4500 -4499 0
4500 4498 4499 0
4350 -16744 0
-4350 16744 0
-4495 -3686 0
-4495 4350 0
4495 3686 -4350 0
-4496 3686 0
-4496 -4350 0
4496 -3686 4350 0
-4497 -4495 0
-4497 -4496 0
4497 4495 4496 0
4349 -16743 0
-4349 16743 0
-4492 -3683 0
-4492 4349 0
4492 3683 -4349 0
-4493 3683 0
-4493 -4349 0
4493 -3683 4349 0
-4494 -4492 0
-4494 -4493 0
4494 4492 4493 0
4348 -16742 0
-4348 16742 0
-4489 -3680 0
-4489 4348 0
4489 3680 -4348 0
-4490 3680 0
-4490 -4348 0
4490 -3680 4348 0
-4491 -4489 0
-4491 -4490 0
4491 4489 4490 0
4347 -16741 0
-4347 16741 0
-4486 -3677 0
-4486 4347 0
4486 3677 -4347 0
-4487 3677 0
-4487 -4347 0
4487 -3677 4347 0
-4488 -4486 0
-4488 -4487 0
4488 4486 4487 0
4346 -16740 0
-4346 16740 0
-4483 -3674 0
-4483 4346 0
4483 3674 -4346 0
-4484 3674 0
-4484 -4346 0
4484 -3674 4346 0
-4485 -4483 0
-4485 -4484 0
4485 4483 4484 0
4345 -16739 0
-4345 16739 0
-4480 -3671 0
-4480 4345 0
4480 3671 -4345 0
-4481 3671 0
-4481 -4345 0
4481 -3671 4345 0
-4482 -4480 0
-4482 -4481 0
4482 4480 4481 0
4344 -16738 0
-4344 16738 0
-4477 -3668 0
-4477 4344 0
4477 3668 -4344 0
-4478 3668 0
-4478 -4344 0
4478 -3668 4344 0
-4479 -4477 0
-4479 -4478 0
4479 4477 4478 0
4343 -16737 0
-4343 16737 0
-4474 -3665 0
-4474 4343 0
4474 3665 -4343 0
-4475 3665 0
-4475 -4343 0
4475 -3665 4343 0
-4476 -4474 0
-4476 -4475 0
4476 4474 4475 0
4342 -16736 0
-4342 16736 0
-4471 -3662 0
-4471 4342 0
4471 3662 -4342 0
-4472 3662 0
-4472 -4342 0
4472 -3662 4342 0
-4473 -4471 0
-4473 -4472 0
4473 4471 4472 0
4341 -16735 0
-4341 16735 0
-4468 -3659 0
-4468 4341 0
4468 3659 -4341 0
-4469 3659 0
-4469 -4341 0
4469 -3659 4341 0
-4470 -4468 0
-4470 -4469 0
4470 4468 4469 0
4340 -16734 0
-4340 16734 0
-4465 -3656 0
-4465 4340 0
4465 3656 -4340 0
-4466 3656 0
-4466 -4340 0
4466 -3656 4340 0
-4467 -4465 0
-4467 -4466 0
4467 4465 4466 0
4339 -16733 0
-4339 16733 0
-4462 -3653 0
-4462 4339 0
4462 3653 -4339 0
-4463 3653 0
-4463 -4339 0
4463 -3653 4339 0
-4464 -4462 0
-4464 -4463 0
4464 4462 4463 0
4338 -16732 0
-4338 16732 0
-4459 -3650 0
-4459 4338 0
4459 3650 -4338 0
-4460 3650 0
-4460 -4338 0
4460 -3650 4338 0
-4461 -4459 0
-4461 -4460 0
4461 4459 4460 0
4337 -16731 0
-4337 16731 0
-4456 -3647 0
-4456 4337 0
4456 3647 -4337 0
-4457 3647 0
-4457 -4337 0
4457 -3647 4337 0
-4458 -4456 0
-4458 -4457 0
4458 4456 4457 0
4336 -16730 0
-4336 16730 0
-4453 -3644 0
-4453 4336 0
4453 3644 -4336 0
-4454 3644 0
-4454 -4336 0
4454 -3644 4336 0
-4455 -4453 0
-4455 -4454 0
4455 4453 4454 0
4335 -16729 0
-4335 16729 0
-4450 -3641 0
-4450 4335 0
4450 3641 -4335 0
-4451 3641 0
-4451 -4335 0
4451 -3641 4335 0
-4452 -4450 0
-4452 -4451 0
4452 4450 4451 0
4334 -16728 0
-4334 16728 0
-4447 -3638 0
-4447 4334 0
4447 3638 -4334 0
-4448 3638 0
-4448 -4334 0
4448 -3638 4334 0
-4449 -4447 0
-4449 -4448 0
4449 4447 4448 0
4333 -16727 0
-4333 16727 0
-4444 -3635 0
-4444 4333 0
4444 3635 -4333 0
-4445 3635 0
-4445 -4333 0
4445 -3635 4333 0
-4446 -4444 0
-4446 -4445 0
4446 4444 4445 0
4332 -16726 0
-4332 16726 0
-4441 -3632 0
-4441 4332 0
4441 3632 -4332 0
-4442 3632 0
-4442 -4332 0
4442 -3632 4332 0
-4443 -4441 0
-4443 -4442 0
4443 4441 4442 0
4331 -16725 0
-4331 16725 0
-4438 -3629 0
-4438 4331 0
4438 3629 -4331 0
-4439 3629 0
-4439 -4331 0
4439 -3629 4331 0
-4440 -4438 0
-4440 -4439 0
4440 4438 4439 0
4330 -16724 0
-4330 16724 0
-4435 -3626 0
-4435 4330 0
4435 3626 -4330 0
-4436 3626 0
-4436 -4330 0
4436 -3626 4330 0
-4437 -4435 0
-4437 -4436 0
4437 4435 4436 0
4329 -16723 0
-4329 16723 0
-4432 -3623 0
-4432 4329 0
4432 3623 -4329 0
-4433 3623 0
-4433 -4329 0
4433 -3623 4329 0
-4434 -4432 0
-4434 -4433 0
4434 4432 4433 0
4328 -16722 0
-4328 16722 0
-4429 -3620 0
-4429 4328 0
4429 3620 -4328 0
-4430 3620 0
-4430 -4328 0
4430 -3620 4328 0
-4431 -4429 0
-4431 -4430 0
4431 4429 4430 0
4327 -16721 0
-4327 16721 0
-4426 -3617 0
-4426 4327 0
4426 3617 -4327 0
-4427 3617 0
-4427 -4327 0
4427 -3617 4327 0
-4428 -4426 0
-4428 -4427 0
4428 4426 4427 0
4326 -16720 0
-4326 16720 0
-4423 -3614 0
-4423 4326 0
4423 3614 -4326 0
-4424 3614 0
-4424 -4326 0
4424 -3614 4326 0
-4425 -4423 0
-4425 -4424 0
4425 4423 4424 0
4325 -16719 0
-4325 16719 0
-4420 -3611 0
-4420 4325 0
4420 3611 -4325 0
-4421 3611 0
-4421 -4325 0
4421 -3611 4325 0
-4422 -4420 0
-4422 -4421 0
4422 4420 4421 0
4324 -16718 0
-4324 16718 0
-4417 -3608 0
-4417 4324 0
4417 3608 -4324 0
-4418 3608 0
-4418 -4324 0
4418 -3608 4324 0
-4419 -4417 0
-4419 -4418 0
4419 4417 4418 0
4323 -16717 0
-4323 16717 0
-4414 -3605 0
-4414 4323 0
4414 3605 -4323 0
-4415 3605 0
-4415 -4323 0
4415 -3605 4323 0
-4416 -4414 0
-4416 -4415 0
4416 4414 4415 0
4322 -16716 0
-4322 16716 0
-4411 -3602 0
-4411 4322 0
4411 3602 -4322 0
-4412 3602 0
-4412 -4322 0
4412 -3602 4322 0
-4413 -4411 0
-4413 -4412 0
4413 4411 4412 0
4321 -16715 0
-4321 16715 0
-4408 -3599 0
-4408 4321 0
4408 3599 -4321 0
-4409 3599 0
-4409 -4321 0
4409 -3599 4321 0
-4410 -4408 0
-4410 -4409 0
4410 4408 4409 0
4320 -16714 0
-4320 16714 0
-4405 -3596 0
-4405 4320 0
4405 3596 -4320 0
-4406 3596 0
-4406 -4320 0
4406 -3596 4320 0
-4407 -4405 0
-4407 -4406 0
4407 4405 4406 0
4319 -16713 0
-4319 16713 0
-4402 -3593 0
-4402 4319 0
4402 3593 -4319 0
-4403 3593 0
-4403 -4319 0
4403 -3593 4319 0
-4404 -4402 0
-4404 -4403 0
4404 4402 4403 0
4318 -16712 0
-4318 16712 0
-4399 -3590 0
-4399 4318 0
4399 3590 -4318 0
-4400 3590 0
-4400 -4318 0
4400 -3590 4318 0
-4401 -4399 0
-4401 -4400 0
4401 4399 4400 0
4317 -16711 0
-4317 16711 0
-4396 -3587 0
-4396 4317 0
4396 3587 -4317 0
-4397 3587 0
-4397 -4317 0
4397 -3587 4317 0
-4398 -4396 0
-4398 -4397 0
4398 4396 4397 0
4316 -16710 0
-4316 16710 0
-4393 -3584 0
-4393 4316 0
4393 3584 -4316 0
-4394 3584 0
-4394 -4316 0
4394 -3584 4316 0
-4395 -4393 0
-4395 -4394 0
4395 4393 4394 0
4315 -16709 0
-4315 16709 0
-4390 -3581 0
-4390 4315 0
4390 3581 -4315 0
-4391 3581 0
-4391 -4315 0
4391 -3581 4315 0
-4392 -4390 0
-4392 -4391 0
4392 4390 4391 0
4314 -16708 0
-4314 16708 0
-4387 -3578 0
-4387 4314 0
4387 3578 -4314 0
-4388 3578 0
-4388 -4314 0
4388 -3578 4314 0
-4389 -4387 0
-4389 -4388 0
4389 4387 4388 0
4313 -16707 0
-4313 16707 0
-4384 -3575 0
-4384 4313 0
4384 3575 -4313 0
-4385 3575 0
-4385 -4313 0
4385 -3575 4313 0
-4386 -4384 0
-4386 -4385 0
4386 4384 4385 0
4312 -16706 0
-4312 16706 0
-4381 -3572 0
-4381 4312 0
4381 3572 -4312 0
-4382 3572 0
-4382 -4312 0
4382 -3572 4312 0
-4383 -4381 0
-4383 -4382 0
4383 4381 4382 0
4311 -16705 0
-4311 16705 0
-4378 -3569 0
-4378 4311 0
4378 3569 -4311 0
-4379 3569 0
-4379 -4311 0
4379 -3569 4311 0
-4380 -4378 0
-4380 -4379 0
4380 4378 4379 0
4309 -16703 0
-4309 16703 0
-4372 -3563 0
-4372 4309 0
4372 3563 -4309 0
-4373 3563 0
-4373 -4309 0
4373 -3563 4309 0
-4374 -4372 0
-4374 -4373 0
4374 4372 4373 0
4310 -16704 0
-4310 16704 0
-4375 -3566 0
-4375 4310 0
4375 3566 -4310 0
-4376 3566 0
-4376 -4310 0
4376 -3566 4310 0
-4377 -4375 0
-4377 -4376 0
4377 4375 4376 0
-4558 4374 0
-4558 4377 0
4558 -4374 -4377 0
-4559 4380 0
-4559 4558 0
4559 -4380 -4558 0
-4560 4383 0
-4560 4559 0
4560 -4383 -4559 0
-4561 4386 0
-4561 4560 0
4561 -4386 -4560 0
-4562 4389 0
-4562 4561 0
4562 -4389 -4561 0
-4563 4392 0
-4563 4562 0
4563 -4392 -4562 0
-4564 4395 0
-4564 4563 0
4564 -4395 -4563 0
-4565 4398 0
-4565 4564 0
4565 -4398 -4564 0
-4566 4401 0
-4566 4565 0
4566 -4401 -4565 0
-4567 4404 0
-4567 4566 0
4567 -4404 -4566 0
-4568 4407 0
-4568 4567 0
4568 -4407 -4567 0
-4569 4410 0
-4569 4568 0
4569 -4410 -4568 0
-4570 4413 0
-4570 4569 0
4570 -4413 -4569 0
-4571 4416 0
-4571 4570 0
4571 -4416 -4570 0
-4572 4419 0
-4572 4571 0
4572 -4419 -4571 0
-4573 4422 0
-4573 4572 0
4573 -4422 -4572 0
-4574 4425 0
-4574 4573 0
4574 -4425 -4573 0
-4575 4428 0
-4575 4574 0
4575 -4428 -4574 0
-4576 4431 0
-4576 4575 0
4576 -4431 -4575 0
-4577 4434 0
-4577 4576 0
4577 -4434 -4576 0
-4578 4437 0
-4578 4577 0
4578 -4437 -4577 0
-4579 4440 0
-4579 4578 0
4579 -4440 -4578 0
-4580 4443 0
-4580 4579 0
4580 -4443 -4579 0
-4581 4446 0
-4581 4580 0
4581 -4446 -4580 0
-4582 4449 0
-4582 4581 0
4582 -4449 -4581 0
-4583 4452 0
-4583 4582 0
4583 -4452 -4582 0
-4584 4455 0
-4584 4583 0
4584 -4455 -4583 0
-4585 4458 0
-4585 4584 0
4585 -4458 -4584 0
-4586 4461 0
-4586 4585 0
4586 -4461 -4585 0
-4587 4464 0
-4587 4586 0
4587 -4464 -4586 0
-4588 4467 0
-4588 4587 0
4588 -4467 -4587 0
-4589 4470 0
-4589 4588 0
4589 -4470 -4588 0
-4590 4473 0
-4590 4589 0
4590 -4473 -4589 0
-4591 4476 0
-4591 4590 0
4591 -4476 -4590 0
-4592 4479 0
-4592 4591 0
4592 -4479 -4591 0
-4593 4482 0
-4593 4592 0
4593 -4482 -4592 0
-4594 4485 0
-4594 4593 0
4594 -4485 -4593 0
-4595 4488 0
-4595 4594 0
4595 -4488 -4594 0
-4596 4491 0
-4596 4595 0
4596 -4491 -4595 0
-4597 4494 0
-4597 4596 0
4597 -4494 -4596 0
-4598 4497 0
-4598 4597 0
4598 -4497 -4597 0
-4599 4500 0
-4599 4598 0
4599 -4500 -4598 0
-4600 4503 0
-4600 4599 0
4600 -4503 -4599 0
-4601 4506 0
-4601 4600 0
4601 -4506 -4600 0
-4602 4509 0
-4602 4601 0
4602 -4509 -4601 0
-4603 4512 0
-4603 4602 0
4603 -4512 -4602 0
-4604 4515 0
-4604 4603 0
4604 -4515 -4603 0
-4605 4518 0
-4605 4604 0
4605 -4518 -4604 0
-4606 4521 0
-4606 4605 0
4606 -4521 -4605 0
-4607 4524 0
-4607 4606 0
4607 -4524 -4606 0
-4608 4527 0
-4608 4607 0
4608 -4527 -4607 0
-4609 4530 0
-4609 4608 0
4609 -4530 -4608 0
-4610 4533 0
-4610 4609 0
4610 -4533 -4609 0
-4611 4536 0
-4611 4610 0
4611 -4536 -4610 0
-4612 4539 0
-4612 4611 0
4612 -4539 -4611 0
-4613 4542 0
-4613 4612 0
4613 -4542 -4612 0
-4614 4545 0
-4614 4613 0
4614 -4545 -4613 0
-4615 4548 0
-4615 4614 0
4615 -4548 -4614 0
-4616 4551 0
-4616 4615 0
4616 -4551 -4615 0
-4617 4554 0
-4617 4616 0
4617 -4554 -4616 0
-4618 4557 0
-4618 4617 0
4618 -4557 -4617 0
-4619 -4371 0
-4619 4618 0
4619 4371 -4618 0
-4620 2451 0
-4620 -4619 0
4620 -2451 4619 0
-4621 4308 0
-4621 -4620 0
4621 -4308 4620 0
-4805 -2556 0
-4805 4370 0
4805 2556 -4370 0
-4806 2556 0
-4806 -4370 0
4806 -2556 4370 0
-4807 -4805 0
-4807 -4806 0
4807 4805 4806 0
-4802 -2555 0
-4802 4369 0
4802 2555 -4369 0
-4803 2555 0
-4803 -4369 0
4803 -2555 4369 0
-4804 -4802 0
-4804 -4803 0
4804 4802 4803 0
-4799 -2554 0
-4799 4368 0
4799 2554 -4368 0
-4800 2554 0
-4800 -4368 0
4800 -2554 4368 0
-4801 -4799 0
-4801 -4800 0
4801 4799 4800 0
-4796 -2553 0
-4796 4367 0
4796 2553 -4367 0
-4797 2553 0
-4797 -4367 0
4797 -2553 4367 0
-4798 -4796 0
-4798 -4797 0
4798 4796 4797 0
-4793 -2552 0
-4793 4366 0
4793 2552 -4366 0
-4794 2552 0
-4794 -4366 0
4794 -2552 4366 0
-4795 -4793 0
-4795 -4794 0
4795 4793 4794 0
-4790 -2551 0
-4790 4365 0
4790 2551 -4365 0
-4791 2551 0
-4791 -4365 0
4791 -2551 4365 0
-4792 -4790 0
-4792 -4791 0
4792 4790 4791 0
-4787 -2550 0
-4787 4364 0
4787 2550 -4364 0
-4788 2550 0
-4788 -4364 0
4788 -2550 4364 0
-4789 -4787 0
-4789 -4788 0
4789 4787 4788 0
-4784 -2549 0
-4784 4363 0
4784 2549 -4363 0
-4785 2549 0
-4785 -4363 0
4785 -2549 4363 0
-4786 -4784 0
-4786 -4785 0
4786 4784 4785 0
-4781 -2548 0
-4781 4362 0
4781 2548 -4362 0
-4782 2548 0
-4782 -4362 0
4782 -2548 4362 0
-4783 -4781 0
-4783 -4782 0
4783 4781 4782 0
-4778 -2547 0
-4778 4361 0
4778 2547 -4361 0
-4779 2547 0
-4779 -4361 0
4779 -2547 4361 0
-4780 -4778 0
-4780 -4779 0
4780 4778 4779 0
-4775 -2546 0
-4775 4360 0
4775 2546 -4360 0
-4776 2546 0
-4776 -4360 0
4776 -2546 4360 0
-4777 -4775 0
-4777 -4776 0
4777 4775 4776 0
-4772 -2545 0
-4772 4359 0
4772 2545 -4359 0
-4773 2545 0
-4773 -4359 0
4773 -2545 4359 0
-4774 -4772 0
-4774 -4773 0
4774 4772 4773 0
-4769 -2544 0
-4769 4358 0
4769 2544 -4358 0
-4770 2544 0
-4770 -4358 0
4770 -2544 4358 0
-4771 -4769 0
-4771 -4770 0
4771 4769 4770 0
-4766 -2543 0
-4766 4357 0
4766 2543 -4357 0
-4767 2543 0
-4767 -4357 0
4767 -2543 4357 0
-4768 -4766 0
-4768 -4767 0
4768 4766 4767 0
-4763 -2542 0
-4763 4356 0
4763 2542 -4356 0
-4764 2542 0
-4764 -4356 0
4764 -2542 4356 0
-4765 -4763 0
-4765 -4764 0
4765 4763 4764 0
-4760 -2541 0
-4760 4355 0
4760 2541 -4355 0
-4761 2541 0
-4761 -4355 0
4761 -2541 4355 0
-4762 -4760 0
-4762 -4761 0
4762 4760 4761 0
-4757 -2540 0
-4757 4354 0
4757 2540 -4354 0
-4758 2540 0
-4758 -4354 0
4758 -2540 4354 0
-4759 -4757 0
-4759 -4758 0
4759 4757 4758 0
-4754 -2539 0
-4754 4353 0
4754 2539 -4353 0
-4755 2539 0
-4755 -4353 0
4755 -2539 4353 0
-4756 -4754 0
-4756 -4755 0
4756 4754 4755 0
-4751 -2538 0
-4751 4352 0
4751 2538 -4352 0
-4752 2538 0
-4752 -4352 0
4752 -2538 4352 0
-4753 -4751 0
-4753 -4752 0
4753 4751 4752 0
-4748 -2537 0
-4748 4351 0
4748 2537 -4351 0
-4749 2537 0
-4749 -4351 0
4749 -2537 4351 0
-4750 -4748 0
-4750 -4749 0
4750 4748 4749 0
-4745 -2536 0
-4745 4350 0
4745 2536 -4350 0
-4746 2536 0
-4746 -4350 0
4746 -2536 4350 0
-4747 -4745 0
-4747 -4746 0
4747 4745 4746 0
-4742 -2535 0
-4742 4349 0
4742 2535 -4349 0
-4743 2535 0
-4743 -4349 0
4743 -2535 4349 0
-4744 -4742 0
-4744 -4743 0
4744 4742 4743 0
-4739 -2534 0
-4739 4348 0
4739 2534 -4348 0
-4740 2534 0
-4740 -4348 0
4740 -2534 4348 0
-4741 -4739 0
-4741 -4740 0
4741 4739 4740 0
-4736 -2533 0
-4736 4347 0
4736 2533 -4347 0
-4737 2533 0
-4737 -4347 0
4737 -2533 4347 0
-4738 -4736 0
-4738 -4737 0
4738 4736 4737 0
-4733 -2532 0
-4733 4346 0
4733 2532 -4346 0
-4734 2532 0
-4734 -4346 0
4734 -2532 4346 0
-4735 -4733 0
-4735 -4734 0
4735 4733 4734 0
-4730 -2531 0
-4730 4345 0
4730 2531 -4345 0
-4731 2531 0
-4731 -4345 0
4731 -2531 4345 0
-4732 -4730 0
-4732 -4731 0
4732 4730 4731 0
-4727 -2530 0
-4727 4344 0
4727 2530 -4344 0
-4728 2530 0
-4728 -4344 0
4728 -2530 4344 0
-4729 -4727 0
-4729 -4728 0
4729 4727 4728 0
-4724 -2529 0
-4724 4343 0
4724 2529 -4343 0
-4725 2529 0
-4725 -4343 0
4725 -2529 4343 0
-4726 -4724 0
-4726 -4725 0
4726 4724 4725 0
-4721 -2528 0
-4721 4342 0
4721 2528 -4342 0
-4722 2528 0
-4722 -4342 0
4722 -2528 4342 0
-4723 -4721 0
-4723 -4722 0
4723 4721 4722 0
-4718 -2527 0
-4718 4341 0
4718 2527 -4341 0
-4719 2527 0
-4719 -4341 0
4719 -2527 4341 0
-4720 -4718 0
-4720 -4719 0
4720 4718 4719 0
-4715 -2526 0
-4715 4340 0
4715 2526 -4340 0
-4716 2526 0
-4716 -4340 0
4716 -2526 4340 0
-4717 -4715 0
-4717 -4716 0
4717 4715 4716 0
-4712 -2525 0
-4712 4339 0
4712 2525 -4339 0
-4713 2525 0
-4713 -4339 0
4713 -2525 4339 0
-4714 -4712 0
-4714 -4713 0
4714 4712 4713 0
-4709 -2524 0
-4709 4338 0
4709 2524 -4338 0
-4710 2524 0
-4710 -4338 0
4710 -2524 4338 0
-4711 -4709 0
-4711 -4710 0
4711 4709 4710 0
-4706 -2523 0
-4706 4337 0
4706 2523 -4337 0
-4707 2523 0
-4707 -4337 0
4707 -2523 4337 0
-4708 -4706 0
-4708 -4707 0
4708 4706 4707 0
-4703 -2522 0
-4703 4336 0
4703 2522 -4336 0
-4704 2522 0
-4704 -4336 0
4704 -2522 4336 0
-4705 -4703 0
-4705 -4704 0
4705 4703 4704 0
-4700 -2521 0
-4700 4335 0
4700 2521 -4335 0
-4701 2521 0
-4701 -4335 0
4701 -2521 4335 0
-4702 -4700 0
-4702 -4701 0
4702 4700 4701 0
-4697 -2520 0
-4697 4334 0
4697 2520 -4334 0
-4698 2520 0
-4698 -4334 0
4698 -2520 4334 0
-4699 -4697 0
-4699 -4698 0
4699 4697 4698 0
-4694 -2519 0
-4694 4333 0
4694 2519 -4333 0
-4695 2519 0
-4695 -4333 0
4695 -2519 4333 0
-4696 -4694 0
-4696 -4695 0
4696 4694 4695 0
-4691 -2518 0
-4691 4332 0
4691 2518 -4332 0
-4692 2518 0
-4692 -4332 0
4692 -2518 4332 0
-4693 -4691 0
-4693 -4692 0
4693 4691 4692 0
-4688 -2517 0
-4688 4331 0
4688 2517 -4331 0
-4689 2517 0
-4689 -4331 0
4689 -2517 4331 0
-4690 -4688 0
-4690 -4689 0
4690 4688 4689 0
-4685 -2516 0
-4685 4330 0
4685 2516 -4330 0
-4686 2516 0
-4686 -4330 0
4686 -2516 4330 0
-4687 -4685 0
-4687 -4686 0
4687 4685 4686 0
-4682 -2515 0
-4682 4329 0
4682 2515 -4329 0
-4683 2515 0
-4683 -4329 0
4683 -2515 4329 0
-4684 -4682 0
-4684 -4683 0
4684 4682 4683 0
-4679 -2514 0
-4679 4328 0
4679 2514 -4328 0
-4680 2514 0
-4680 -4328 0
4680 -2514 4328 0
-4681 -4679 0
-4681 -4680 0
4681 4679 4680 0
-4676 -2513 0
-4676 4327 0
4676 2513 -4327 0
-4677 2513 0
-4677 -4327 0
4677 -2513 4327 0
-4678 -4676 0
-4678 -4677 0
4678 4676 4677 0
-4673 -2512 0
-4673 4326 0
4673 2512 -4326 0
-4674 2512 0
-4674 -4326 0
4674 -2512 4326 0
-4675 -4673 0
-4675 -4674 0
4675 4673 4674 0
-4670 -2511 0
-4670 4325 0
4670 2511 -4325 0
-4671 2511 0
-4671 -4325 0
4671 -2511 4325 0
-4672 -4670 0
-4672 -4671 0
4672 4670 4671 0
-4667 -2510 0
-4667 4324 0
4667 2510 -4324 0
-4668 2510 0
-4668 -4324 0
4668 -2510 4324 0
-4669 -4667 0
-4669 -4668 0
4669 4667 4668 0
-4664 -2509 0
-4664 4323 0
4664 2509 -4323 0
-4665 2509 0
-4665 -4323 0
4665 -2509 4323 0
-4666 -4664 0
-4666 -4665 0
4666 4664 4665 0
-4661 -2508 0
-4661 4322 0
4661 2508 -4322 0
-4662 2508 0
-4662 -4322 0
4662 -2508 4322 0
-4663 -4661 0
-4663 -4662 0
4663 4661 4662 0
-4658 -2507 0
-4658 4321 0
4658 2507 -4321 0
-4659 2507 0
-4659 -4321 0
4659 -2507 4321 0
-4660 -4658 0
-4660 -4659 0
4660 4658 4659 0
-4655 -2506 0
-4655 4320 0
4655 2506 -4320 0
-4656 2506 0
-4656 -4320 0
4656 -2506 4320 0
-4657 -4655 0
-4657 -4656 0
4657 4655 4656 0
-4652 -2505 0
-4652 4319 0
4652 2505 -4319 0
-4653 2505 0
-4653 -4319 0
4653 -2505 4319 0
-4654 -4652 0
-4654 -4653 0
4654 4652 4653 0
-4649 -2504 0
-4649 4318 0
4649 2504 -4318 0
-4650 2504 0
-4650 -4318 0
4650 -2504 4318 0
-4651 -4649 0
-4651 -4650 0
4651 4649 4650 0
-4646 -2503 0
-4646 4317 0
4646 2503 -4317 0
-4647 2503 0
-4647 -4317 0
4647 -2503 4317 0
-4648 -4646 0
-4648 -4647 0
4648 4646 4647 0
-4643 -2502 0
-4643 4316 0
4643 2502 -4316 0
-4644 2502 0
-4644 -4316 0
4644 -2502 4316 0
-4645 -4643 0
-4645 -4644 0
4645 4643 4644 0
-4640 -2501 0
-4640 4315 0
4640 2501 -4315 0
-4641 2501 0
-4641 -4315 0
4641 -2501 4315 0
-4642 -4640 0
-4642 -4641 0
4642 4640 4641 0
-4637 -2500 0
-4637 4314 0
4637 2500 -4314 0
-4638 2500 0
-4638 -4314 0
4638 -2500 4314 0
-4639 -4637 0
-4639 -4638 0
4639 4637 4638 0
-4634 -2499 0
-4634 4313 0
4634 2499 -4313 0
-4635 2499 0
-4635 -4313 0
4635 -2499 4313 0
-4636 -4634 0
-4636 -4635 0
4636 4634 4635 0
-4631 -2498 0
-4631 4312 0
4631 2498 -4312 0
-4632 2498 0
-4632 -4312 0
4632 -2498 4312 0
-4633 -4631 0
-4633 -4632 0
4633 4631 4632 0
-4628 -2497 0
-4628 4311 0
4628 2497 -4311 0
-4629 2497 0
-4629 -4311 0
4629 -2497 4311 0
-4630 -4628 0
-4630 -4629 0
4630 4628 4629 0
-4622 -2495 0
-4622 4309 0
4622 2495 -4309 0
-4623 2495 0
-4623 -4309 0
4623 -2495 4309 0
-4624 -4622 0
-4624 -4623 0
4624 4622 4623 0
-4625 -2496 0
-4625 4310 0
4625 2496 -4310 0
-4626 2496 0
-4626 -4310 0
4626 -2496 4310 0
-4627 -4625 0
-4627 -4626 0
4627 4625 4626 0
-4808 4624 0
-4808 4627 0
4808 -4624 -4627 0
-4809 4630 0
-4809 4808 0
4809 -4630 -4808 0
-4810 4633 0
-4810 4809 0
4810 -4633 -4809 0
-4811 4636 0
-4811 4810 0
4811 -4636 -4810 0
-4812 4639 0
-4812 4811 0
4812 -4639 -4811 0
-4813 4642 0
-4813 4812 0
4813 -4642 -4812 0
-4814 4645 0
-4814 4813 0
4814 -4645 -4813 0
-4815 4648 0
-4815 4814 0
4815 -4648 -4814 0
-4816 4651 0
-4816 4815 0
4816 -4651 -4815 0
-4817 4654 0
-4817 4816 0
4817 -4654 -4816 0
-4818 4657 0
-4818 4817 0
4818 -4657 -4817 0
-4819 4660 0
-4819 4818 0
4819 -4660 -4818 0
-4820 4663 0
-4820 4819 0
4820 -4663 -4819 0
-4821 4666 0
-4821 4820 0
4821 -4666 -4820 0
-4822 4669 0
-4822 4821 0
4822 -4669 -4821 0
-4823 4672 0
-4823 4822 0
4823 -4672 -4822 0
-4824 4675 0
-4824 4823 0
4824 -4675 -4823 0
-4825 4678 0
-4825 4824 0
4825 -4678 -4824 0
-4826 4681 0
-4826 4825 0
4826 -4681 -4825 0
-4827 4684 0
-4827 4826 0
4827 -4684 -4826 0
-4828 4687 0
-4828 4827 0
4828 -4687 -4827 0
-4829 4690 0
-4829 4828 0
4829 -4690 -4828 0
-4830 4693 0
-4830 4829 0
4830 -4693 -4829 0
-4831 4696 0
-4831 4830 0
4831 -4696 -4830 0
-4832 4699 0
-4832 4831 0
4832 -4699 -4831 0
-4833 4702 0
-4833 4832 0
4833 -4702 -4832 0
-4834 4705 0
-4834 4833 0
4834 -4705 -4833 0
-4835 4708 0
-4835 4834 0
4835 -4708 -4834 0
-4836 4711 0
-4836 4835 0
4836 -4711 -4835 0
-4837 4714 0
-4837 4836 0
4837 -4714 -4836 0
-4838 4717 0
-4838 4837 0
4838 -4717 -4837 0
-4839 4720 0
-4839 4838 0
4839 -4720 -4838 0
-4840 4723 0
-4840 4839 0
4840 -4723 -4839 0
-4841 4726 0
-4841 4840 0
4841 -4726 -4840 0
-4842 4729 0
-4842 4841 0
4842 -4729 -4841 0
-4843 4732 0
-4843 4842 0
4843 -4732 -4842 0
-4844 4735 0
-4844 4843 0
4844 -4735 -4843 0
-4845 4738 0
-4845 4844 0
4845 -4738 -4844 0
-4846 4741 0
-4846 4845 0
4846 -4741 -4845 0
-4847 4744 0
-4847 4846 0
4847 -4744 -4846 0
-4848 4747 0
-4848 4847 0
4848 -4747 -4847 0
-4849 4750 0
-4849 4848 0
4849 -4750 -4848 0
-4850 4753 0
-4850 4849 0
4850 -4753 -4849 0
-4851 4756 0
-4851 4850 0
4851 -4756 -4850 0
-4852 4759 0
-4852 4851 0
4852 -4759 -4851 0
-4853 4762 0
-4853 4852 0
4853 -4762 -4852 0
-4854 4765 0
-4854 4853 0
4854 -4765 -4853 0
-4855 4768 0
-4855 4854 0
4855 -4768 -4854 0
-4856 4771 0
-4856 4855 0
4856 -4771 -4855 0
-4857 4774 0
-4857 4856 0
4857 -4774 -4856 0
-4858 4777 0
-4858 4857 0
4858 -4777 -4857 0
-4859 4780 0
-4859 4858 0
4859 -4780 -4858 0
-4860 4783 0
-4860 4859 0
4860 -4783 -4859 0
-4861 4786 0
-4861 4860 0
4861 -4786 -4860 0
-4862 4789 0
-4862 4861 0
4862 -4789 -4861 0
-4863 4792 0
-4863 4862 0
4863 -4792 -4862 0
-4864 4795 0
-4864 4863 0
4864 -4795 -4863 0
-4865 4798 0
-4865 4864 0
4865 -4798 -4864 0
-4866 4801 0
-4866 4865 0
4866 -4801 -4865 0
-4867 4804 0
-4867 4866 0
4867 -4804 -4866 0
-4868 4807 0
-4868 4867 0
4868 -4807 -4867 0
-4869 -4371 0
-4869 4868 0
4869 4371 -4868 0
-4870 -2451 0
-4870 -4869 0
4870 2451 4869 0
-4871 4621 0
-4871 -4870 0
4871 -4621 4870 0
4935 -16829 0
-4935 16829 0
4934 -16828 0
-4934 16828 0
-5359 3118 0
-5359 3119 0
5359 -3118 -3119 0
-5352 3117 0
-5352 3118 0
5352 -3117 -3118 0
-5345 3116 0
-5345 3117 0
5345 -3116 -3117 0
-5338 3115 0
-5338 3116 0
5338 -3115 -3116 0
-5331 3114 0
-5331 3115 0
5331 -3114 -3115 0
-5324 3113 0
-5324 3114 0
5324 -3113 -3114 0
-5317 3112 0
-5317 3113 0
5317 -3112 -3113 0
-5310 3111 0
-5310 3112 0
5310 -3111 -3112 0
-5303 3110 0
-5303 3111 0
5303 -3110 -3111 0
-5296 3109 0
-5296 3110 0
5296 -3109 -3110 0
-5289 3108 0
-5289 3109 0
5289 -3108 -3109 0
-5282 3107 0
-5282 3108 0
5282 -3107 -3108 0
-5275 3106 0
-5275 3107 0
5275 -3106 -3107 0
-5268 3105 0
-5268 3106 0
5268 -3105 -3106 0
-5261 3104 0
-5261 3105 0
5261 -3104 -3105 0
-5254 3103 0
-5254 3104 0
5254 -3103 -3104 0
-5247 3102 0
-5247 3103 0
5247 -3102 -3103 0
-5240 3101 0
-5240 3102 0
5240 -3101 -3102 0
-5233 3100 0
-5233 3101 0
5233 -3100 -3101 0
-5226 3099 0
-5226 3100 0
5226 -3099 -3100 0
-5219 3098 0
-5219 3099 0
5219 -3098 -3099 0
-5212 3097 0
-5212 3098 0
5212 -3097 -3098 0
-5205 3096 0
-5205 3097 0
5205 -3096 -3097 0
-5198 3095 0
-5198 3096 0
5198 -3095 -3096 0
-5191 3094 0
-5191 3095 0
5191 -3094 -3095 0
-5184 3093 0
-5184 3094 0
5184 -3093 -3094 0
-5177 3092 0
-5177 3093 0
5177 -3092 -3093 0
-5170 3091 0
-5170 3092 0
5170 -3091 -3092 0
-5163 3090 0
-5163 3091 0
5163 -3090 -3091 0
-5156 3089 0
-5156 3090 0
5156 -3089 -3090 0
-5149 3088 0
-5149 3089 0
5149 -3088 -3089 0
-5142 3087 0
-5142 3088 0
5142 -3087 -3088 0
-5135 3086 0
-5135 3087 0
5135 -3086 -3087 0
-5128 3085 0
-5128 3086 0
5128 -3085 -3086 0
-5121 3084 0
-5121 3085 0
5121 -3084 -3085 0
-5114 3083 0
-5114 3084 0
5114 -3083 -3084 0
-5107 3082 0
-5107 3083 0
5107 -3082 -3083 0
-5100 3081 0
-5100 3082 0
5100 -3081 -3082 0
-5093 3080 0
-5093 3081 0
5093 -3080 -3081 0
-5086 3079 0
-5086 3080 0
5086 -3079 -3080 0
-5079 3078 0
-5079 3079 0
5079 -3078 -3079 0
-5072 3077 0
-5072 3078 0
5072 -3077 -3078 0
-5065 3076 0
-5065 3077 0
5065 -3076 -3077 0
-5058 3075 0
-5058 3076 0
5058 -3075 -3076 0
-5051 3074 0
-5051 3075 0
5051 -3074 -3075 0
-5044 3073 0
-5044 3074 0
5044 -3073 -3074 0
-5037 3072 0
-5037 3073 0
5037 -3072 -3073 0
-5030 3071 0
-5030 3072 0
5030 -3071 -3072 0
-5023 3070 0
-5023 3071 0
5023 -3070 -3071 0
-5016 3069 0
-5016 3070 0
5016 -3069 -3070 0
-5009 3068 0
-5009 3069 0
5009 -3068 -3069 0
-5002 3067 0
-5002 3068 0
5002 -3067 -3068 0
-4995 3066 0
-4995 3067 0
4995 -3066 -3067 0
-4988 3065 0
-4988 3066 0
4988 -3065 -3066 0
-4981 3064 0
-4981 3065 0
4981 -3064 -3065 0
-4974 3063 0
-4974 3064 0
4974 -3063 -3064 0
-4967 3062 0
-4967 3063 0
4967 -3062 -3063 0
-4960 3061 0
-4960 3062 0
4960 -3061 -3062 0
-4953 3060 0
-4953 3061 0
4953 -3060 -3061 0
-4946 3059 0
-4946 3060 0
4946 -3059 -3060 0
-4939 3058 0
-4939 3059 0
4939 -3058 -3059 0
-4936 3057 0
-4936 3058 0
4936 -3057 -3058 0
-4940 -3058 0
-4940 -3059 0
4940 3058 3059 0
-4941 -4939 0
-4941 -4940 0
4941 4939 4940 0
-4942 4936 0
-4942 4941 0
4942 -4936 -4941 0
-4945 -4939 0
-4945 -4942 0
4945 4939 4942 0
-4947 -3059 0
-4947 -3060 0
4947 3059 3060 0
-4948 -4946 0
-4948 -4947 0
4948 4946 4947 0
-4949 -4945 0
-4949 4948 0
4949 4945 -4948 0
-4952 -4946 0
-4952 -4949 0
4952 4946 4949 0
-4954 -3060 0
-4954 -3061 0
4954 3060 3061 0
-4955 -4953 0
-4955 -4954 0
4955 4953 4954 0
-4956 -4952 0
-4956 4955 0
4956 4952 -4955 0
-4959 -4953 0
-4959 -4956 0
4959 4953 4956 0
-4961 -3061 0
-4961 -3062 0
4961 3061 3062 0
-4962 -4960 0
-4962 -4961 0
4962 4960 4961 0
-4963 -4959 0
-4963 4962 0
4963 4959 -4962 0
-4966 -4960 0
-4966 -4963 0
4966 4960 4963 0
-4968 -3062 0
-4968 -3063 0
4968 3062 3063 0
-4969 -4967 0
-4969 -4968 0
4969 4967 4968 0
-4970 -4966 0
-4970 4969 0
4970 4966 -4969 0
-4973 -4967 0
-4973 -4970 0
4973 4967 4970 0
-4975 -3063 0
-4975 -3064 0
4975 3063 3064 0
-4976 -4974 0
-4976 -4975 0
4976 4974 4975 0
-4977 -4973 0
-4977 4976 0
4977 4973 -4976 0
-4980 -4974 0
-4980 -4977 0
4980 4974 4977 0
-4982 -3064 0
-4982 -3065 0
4982 3064 3065 0
-4983 -4981 0
-4983 -4982 0
4983 4981 4982 0
-4984 -4980 0
-4984 4983 0
4984 4980 -4983 0
-4987 -4981 0
-4987 -4984 0
4987 4981 4984 0
-4989 -3065 0
-4989 -3066 0
4989 3065 3066 0
-4990 -4988 0
-4990 -4989 0
4990 4988 4989 0
-4991 -4987 0
-4991 4990 0
4991 4987 -4990 0
-4994 -4988 0
-4994 -4991 0
4994 4988 4991 0
-4996 -3066 0
-4996 -3067 0
4996 3066 3067 0
-4997 -4995 0
-4997 -4996 0
4997 4995 4996 0
-4998 -4994 0
-4998 4997 0
4998 4994 -4997 0
-5001 -4995 0
-5001 -4998 0
5001 4995 4998 0
-5003 -3067 0
-5003 -3068 0
5003 3067 3068 0
-5004 -5002 0
-5004 -5003 0
5004 5002 5003 0
-5005 -5001 0
-5005 5004 0
5005 5001 -5004 0
-5008 -5002 0
-5008 -5005 0
5008 5002 5005 0
-5010 -3068 0
-5010 -3069 0
5010 3068 3069 0
-5011 -5009 0
-5011 -5010 0
5011 5009 5010 0
-5012 -5008 0
-5012 5011 0
5012 5008 -5011 0
-5015 -5009 0
-5015 -5012 0
5015 5009 5012 0
-5017 -3069 0
-5017 -3070 0
5017 3069 3070 0
-5018 -5016 0
-5018 -5017 0
5018 5016 5017 0
-5019 -5015 0
-5019 5018 0
5019 5015 -5018 0
-5022 -5016 0
-5022 -5019 0
5022 5016 5019 0
-5024 -3070 0
-5024 -3071 0
5024 3070 3071 0
-5025 -5023 0
-5025 -5024 0
5025 5023 5024 0
-5026 -5022 0
-5026 5025 0
5026 5022 -5025 0
-5029 -5023 0
-5029 -5026 0
5029 5023 5026 0
-5031 -3071 0
-5031 -3072 0
5031 3071 3072 0
-5032 -5030 0
-5032 -5031 0
5032 5030 5031 0
-5033 -5029 0
-5033 5032 0
5033 5029 -5032 0
-5036 -5030 0
-5036 -5033 0
5036 5030 5033 0
-5038 -3072 0
-5038 -3073 0
5038 3072 3073 0
-5039 -5037 0
-5039 -5038 0
5039 5037 5038 0
-5040 -5036 0
-5040 5039 0
5040 5036 -5039 0
-5043 -5037 0
-5043 -5040 0
5043 5037 5040 0
-5045 -3073 0
-5045 -3074 0
5045 3073 3074 0
-5046 -5044 0
-5046 -5045 0
5046 5044 5045 0
-5047 -5043 0
-5047 5046 0
5047 5043 -5046 0
-5050 -5044 0
-5050 -5047 0
5050 5044 5047 0
-5052 -3074 0
-5052 -3075 0
5052 3074 3075 0
-5053 -5051 0
-5053 -5052 0
5053 5051 5052 0
-5054 -5050 0
-5054 5053 0
5054 5050 -5053 0
-5057 -5051 0
-5057 -5054 0
5057 5051 5054 0
-5059 -3075 0
-5059 -3076 0
5059 3075 3076 0
-5060 -5058 0
-5060 -5059 0
5060 5058 5059 0
-5061 -5057 0
-5061 5060 0
5061 5057 -5060 0
-5064 -5058 0
-5064 -5061 0
5064 5058 5061 0
-5066 -3076 0
-5066 -3077 0
5066 3076 3077 0
-5067 -5065 0
-5067 -5066 0
5067 5065 5066 0
-5068 -5064 0
-5068 5067 0
5068 5064 -5067 0
-5071 -5065 0
-5071 -5068 0
5071 5065 5068 0
-5073 -3077 0
-5073 -3078 0
5073 3077 3078 0
-5074 -5072 0
-5074 -5073 0
5074 5072 5073 0
-5075 -5071 0
-5075 5074 0
5075 5071 -5074 0
-5078 -5072 0
-5078 -5075 0
5078 5072 5075 0
-5080 -3078 0
-5080 -3079 0
5080 3078 3079 0
-5081 -5079 0
-5081 -5080 0
5081 5079 5080 0
-5082 -5078 0
-5082 5081 0
5082 5078 -5081 0
-5085 -5079 0
-5085 -5082 0
5085 5079 5082 0
-5087 -3079 0
-5087 -3080 0
5087 3079 3080 0
-5088 -5086 0
-5088 -5087 0
5088 5086 5087 0
-5089 -5085 0
-5089 5088 0
5089 5085 -5088 0
-5092 -5086 0
-5092 -5089 0
5092 5086 5089 0
-5094 -3080 0
-5094 -3081 0
5094 3080 3081 0
-5095 -5093 0
-5095 -5094 0
5095 5093 5094 0
-5096 -5092 0
-5096 5095 0
5096 5092 -5095 0
-5099 -5093 0
-5099 -5096 0
5099 5093 5096 0
-5101 -3081 0
-5101 -3082 0
5101 3081 3082 0
-5102 -5100 0
-5102 -5101 0
5102 5100 5101 0
-5103 -5099 0
-5103 5102 0
5103 5099 -5102 0
-5106 -5100 0
-5106 -5103 0
5106 5100 5103 0
-5108 -3082 0
-5108 -3083 0
5108 3082 3083 0
-5109 -5107 0
-5109 -5108 0
5109 5107 5108 0
-5110 -5106 0
-5110 5109 0
5110 5106 -5109 0
-5113 -5107 0
-5113 -5110 0
5113 5107 5110 0
-5115 -3083 0
-5115 -3084 0
5115 3083 3084 0
-5116 -5114 0
-5116 -5115 0
5116 5114 5115 0
-5117 -5113 0
-5117 5116 0
5117 5113 -5116 0
-5120 -5114 0
-5120 -5117 0
5120 5114 5117 0
-5122 -3084 0
-5122 -3085 0
5122 3084 3085 0
-5123 -5121 0
-5123 -5122 0
5123 5121 5122 0
-5124 -5120 0
-5124 5123 0
5124 5120 -5123 0
-5127 -5121 0
-5127 -5124 0
5127 5121 5124 0
-5129 -3085 0
-5129 -3086 0
5129 3085 3086 0
-5130 -5128 0
-5130 -5129 0
5130 5128 5129 0
-5131 -5127 0
-5131 5130 0
5131 5127 -5130 0
-5134 -5128 0
-5134 -5131 0
5134 5128 5131 0
-5136 -3086 0
-5136 -3087 0
5136 3086 3087 0
-5137 -5135 0
-5137 -5136 0
5137 5135 5136 0
-5138 -5134 0
-5138 5137 0
5138 5134 -5137 0
-5141 -5135 0
-5141 -5138 0
5141 5135 5138 0
-5143 -3087 0
-5143 -3088 0
5143 3087 3088 0
-5144 -5142 0
-5144 -5143 0
5144 5142 5143 0
-5145 -5141 0
-5145 5144 0
5145 5141 -5144 0
-5148 -5142 0
-5148 -5145 0
5148 5142 5145 0
-5150 -3088 0
-5150 -3089 0
5150 3088 3089 0
-5151 -5149 0
-5151 -5150 0
5151 5149 5150 0
-5152 -5148 0
-5152 5151 0
5152 5148 -5151 0
-5155 -5149 0
-5155 -5152 0
5155 5149 5152 0
-5157 -3089 0
-5157 -3090 0
5157 3089 3090 0
-5158 -5156 0
-5158 -5157 0
5158 5156 5157 0
-5159 -5155 0
-5159 5158 0
5159 5155 -5158 0
-5162 -5156 0
-5162 -5159 0
5162 5156 5159 0
-5164 -3090 0
-5164 -3091 0
5164 3090 3091 0
-5165 -5163 0
-5165 -5164 0
5165 5163 5164 0
-5166 -5162 0
-5166 5165 0
5166 5162 -5165 0
-5169 -5163 0
-5169 -5166 0
5169 5163 5166 0
-5171 -3091 0
-5171 -3092 0
5171 3091 3092 0
-5172 -5170 0
-5172 -5171 0
5172 5170 5171 0
-5173 -5169 0
-5173 5172 0
5173 5169 -5172 0
-5176 -5170 0
-5176 -5173 0
5176 5170 5173 0
-5178 -3092 0
-5178 -3093 0
5178 3092 3093 0
-5179 -5177 0
-5179 -5178 0
5179 5177 5178 0
-5180 -5176 0
-5180 5179 0
5180 5176 -5179 0
-5183 -5177 0
-5183 -5180 0
5183 5177 5180 0
-5185 -3093 0
-5185 -3094 0
5185 3093 3094 0
-5186 -5184 0
-5186 -5185 0
5186 5184 5185 0
-5187 -5183 0
-5187 5186 0
5187 5183 -5186 0
-5190 -5184 0
-5190 -5187 0
5190 5184 5187 0
-5192 -3094 0
-5192 -3095 0
5192 3094 3095 0
-5193 -5191 0
-5193 -5192 0
5193 5191 5192 0
-5194 -5190 0
-5194 5193 0
5194 5190 -5193 0
-5197 -5191 0
-5197 -5194 0
5197 5191 5194 0
-5199 -3095 0
-5199 -3096 0
5199 3095 3096 0
-5200 -5198 0
-5200 -5199 0
5200 5198 5199 0
-5201 -5197 0
-5201 5200 0
5201 5197 -5200 0
-5204 -5198 0
-5204 -5201 0
5204 5198 5201 0
-5206 -3096 0
-5206 -3097 0
5206 3096 3097 0
-5207 -5205 0
-5207 -5206 0
5207 5205 5206 0
-5208 -5204 0
-5208 5207 0
5208 5204 -5207 0
-5211 -5205 0
-5211 -5208 0
5211 5205 5208 0
-5213 -3097 0
-5213 -3098 0
5213 3097 3098 0
-5214 -5212 0
-5214 -5213 0
5214 5212 5213 0
-5215 -5211 0
-5215 5214 0
5215 5211 -5214 0
-5218 -5212 0
-5218 -5215 0
5218 5212 5215 0
-5220 -3098 0
-5220 -3099 0
5220 3098 3099 0
-5221 -5219 0
-5221 -5220 0
5221 5219 5220 0
-5222 -5218 0
-5222 5221 0
5222 5218 -5221 0
-5225 -5219 0
-5225 -5222 0
5225 5219 5222 0
-5227 -3099 0
-5227 -3100 0
5227 3099 3100 0
-5228 -5226 0
-5228 -5227 0
5228 5226 5227 0
-5229 -5225 0
-5229 5228 0
5229 5225 -5228 0
-5232 -5226 0
-5232 -5229 0
5232 5226 5229 0
-5234 -3100 0
-5234 -3101 0
5234 3100 3101 0
-5235 -5233 0
-5235 -5234 0
5235 5233 5234 0
-5236 -5232 0
-5236 5235 0
5236 5232 -5235 0
-5239 -5233 0
-5239 -5236 0
5239 5233 5236 0
-5241 -3101 0
-5241 -3102 0
5241 3101 3102 0
-5242 -5240 0
-5242 -5241 0
5242 5240 5241 0
-5243 -5239 0
-5243 5242 0
5243 5239 -5242 0
-5246 -5240 0
-5246 -5243 0
5246 5240 5243 0
-5248 -3102 0
-5248 -3103 0
5248 3102 3103 0
-5249 -5247 0
-5249 -5248 0
5249 5247 5248 0
-5250 -5246 0
-5250 5249 0
5250 5246 -5249 0
-5253 -5247 0
-5253 -5250 0
5253 5247 5250 0
-5255 -3103 0
-5255 -3104 0
5255 3103 3104 0
-5256 -5254 0
-5256 -5255 0
5256 5254 5255 0
-5257 -5253 0
-5257 5256 0
5257 5253 -5256 0
-5260 -5254 0
-5260 -5257 0
5260 5254 5257 0
-5262 -3104 0
-5262 -3105 0
5262 3104 3105 0
-5263 -5261 0
-5263 -5262 0
5263 5261 5262 0
-5264 -5260 0
-5264 5263 0
5264 5260 -5263 0
-5267 -5261 0
-5267 -5264 0
5267 5261 5264 0
-5269 -3105 0
-5269 -3106 0
5269 3105 3106 0
-5270 -5268 0
-5270 -5269 0
5270 5268 5269 0
-5271 -5267 0
-5271 5270 0
5271 5267 -5270 0
-5274 -5268 0
-5274 -5271 0
5274 5268 5271 0
-5276 -3106 0
-5276 -3107 0
5276 3106 3107 0
-5277 -5275 0
-5277 -5276 0
5277 5275 5276 0
-5278 -5274 0
-5278 5277 0
5278 5274 -5277 0
-5281 -5275 0
-5281 -5278 0
5281 5275 5278 0
-5283 -3107 0
-5283 -3108 0
5283 3107 3108 0
-5284 -5282 0
-5284 -5283 0
5284 5282 5283 0
-5285 -5281 0
-5285 5284 0
5285 5281 -5284 0
-5288 -5282 0
-5288 -5285 0
5288 5282 5285 0
-5290 -3108 0
-5290 -3109 0
5290 3108 3109 0
-5291 -5289 0
-5291 -5290 0
5291 5289 5290 0
-5292 -5288 0
-5292 5291 0
5292 5288 -5291 0
-5295 -5289 0
-5295 -5292 0
5295 5289 5292 0
-5297 -3109 0
-5297 -3110 0
5297 3109 3110 0
-5298 -5296 0
-5298 -5297 0
5298 5296 5297 0
-5299 -5295 0
-5299 5298 0
5299 5295 -5298 0
-5302 -5296 0
-5302 -5299 0
5302 5296 5299 0
-5304 -3110 0
-5304 -3111 0
5304 3110 3111 0
-5305 -5303 0
-5305 -5304 0
5305 5303 5304 0
-5306 -5302 0
-5306 5305 0
5306 5302 -5305 0
-5309 -5303 0
-5309 -5306 0
5309 5303 5306 0
-5311 -3111 0
-5311 -3112 0
5311 3111 3112 0
-5312 -5310 0
-5312 -5311 0
5312 5310 5311 0
-5313 -5309 0
-5313 5312 0
5313 5309 -5312 0
-5316 -5310 0
-5316 -5313 0
5316 5310 5313 0
-5318 -3112 0
-5318 -3113 0
5318 3112 3113 0
-5319 -5317 0
-5319 -5318 0
5319 5317 5318 0
-5320 -5316 0
-5320 5319 0
5320 5316 -5319 0
-5323 -5317 0
-5323 -5320 0
5323 5317 5320 0
-5325 -3113 0
-5325 -3114 0
5325 3113 3114 0
-5326 -5324 0
-5326 -5325 0
5326 5324 5325 0
-5327 -5323 0
-5327 5326 0
5327 5323 -5326 0
-5330 -5324 0
-5330 -5327 0
5330 5324 5327 0
-5332 -3114 0
-5332 -3115 0
5332 3114 3115 0
-5333 -5331 0
-5333 -5332 0
5333 5331 5332 0
-5334 -5330 0
-5334 5333 0
5334 5330 -5333 0
-5337 -5331 0
-5337 -5334 0
5337 5331 5334 0
-5339 -3115 0
-5339 -3116 0
5339 3115 3116 0
-5340 -5338 0
-5340 -5339 0
5340 5338 5339 0
-5341 -5337 0
-5341 5340 0
5341 5337 -5340 0
-5344 -5338 0
-5344 -5341 0
5344 5338 5341 0
-5346 -3116 0
-5346 -3117 0
5346 3116 3117 0
-5347 -5345 0
-5347 -5346 0
5347 5345 5346 0
-5348 -5344 0
-5348 5347 0
5348 5344 -5347 0
-5351 -5345 0
-5351 -5348 0
5351 5345 5348 0
-5353 -3117 0
-5353 -3118 0
5353 3117 3118 0
-5354 -5352 0
-5354 -5353 0
5354 5352 5353 0
-5355 -5351 0
-5355 5354 0
5355 5351 -5354 0
-5358 -5352 0
-5358 -5355 0
5358 5352 5355 0
-5360 -3118 0
-5360 -3119 0
5360 3118 3119 0
-5361 -5359 0
-5361 -5360 0
5361 5359 5360 0
-5362 -5358 0
-5362 5361 0
5362 5358 -5361 0
-5365 -5359 0
-5365 -5362 0
5365 5359 5362 0
-5366 3119 0
-5366 3120 0
5366 -3119 -3120 0
-5367 -3119 0
-5367 -3120 0
5367 3119 3120 0
-5368 -5366 0
-5368 -5367 0
5368 5366 5367 0
-5369 -5365 0
-5369 5368 0
5369 5365 -5368 0
-5370 5365 0
-5370 -5368 0
5370 -5365 5368 0
-5371 -5369 0
-5371 -5370 0
5371 5369 5370 0
-5363 5358 0
-5363 -5361 0
5363 -5358 5361 0
-5364 -5362 0
-5364 -5363 0
5364 5362 5363 0
-5356 5351 0
-5356 -5354 0
5356 -5351 5354 0
-5357 -5355 0
-5357 -5356 0
5357 5355 5356 0
-5349 5344 0
-5349 -5347 0
5349 -5344 5347 0
-5350 -5348 0
-5350 -5349 0
5350 5348 5349 0
-5342 5337 0
-5342 -5340 0
5342 -5337 5340 0
-5343 -5341 0
-5343 -5342 0
5343 5341 5342 0
-5335 5330 0
-5335 -5333 0
5335 -5330 5333 0
-5336 -5334 0
-5336 -5335 0
5336 5334 5335 0
-5328 5323 0
-5328 -5326 0
5328 -5323 5326 0
-5329 -5327 0
-5329 -5328 0
5329 5327 5328 0
-5321 5316 0
-5321 -5319 0
5321 -5316 5319 0
-5322 -5320 0
-5322 -5321 0
5322 5320 5321 0
-5314 5309 0
-5314 -5312 0
5314 -5309 5312 0
-5315 -5313 0
-5315 -5314 0
5315 5313 5314 0
-5307 5302 0
-5307 -5305 0
5307 -5302 5305 0
-5308 -5306 0
-5308 -5307 0
5308 5306 5307 0
-5300 5295 0
-5300 -5298 0
5300 -5295 5298 0
-5301 -5299 0
-5301 -5300 0
5301 5299 5300 0
-5293 5288 0
-5293 -5291 0
5293 -5288 5291 0
-5294 -5292 0
-5294 -5293 0
5294 5292 5293 0
-5286 5281 0
-5286 -5284 0
5286 -5281 5284 0
-5287 -5285 0
-5287 -5286 0
5287 5285 5286 0
-5279 5274 0
-5279 -5277 0
5279 -5274 5277 0
-5280 -5278 0
-5280 -5279 0
5280 5278 5279 0
-5272 5267 0
-5272 -5270 0
5272 -5267 5270 0
-5273 -5271 0
-5273 -5272 0
5273 5271 5272 0
-5265 5260 0
-5265 -5263 0
5265 -5260 5263 0
-5266 -5264 0
-5266 -5265 0
5266 5264 5265 0
-5258 5253 0
-5258 -5256 0
5258 -5253 5256 0
-5259 -5257 0
-5259 -5258 0
5259 5257 5258 0
-5251 5246 0
-5251 -5249 0
5251 -5246 5249 0
-5252 -5250 0
-5252 -5251 0
5252 5250 5251 0
-5244 5239 0
-5244 -5242 0
5244 -5239 5242 0
-5245 -5243 0
-5245 -5244 0
5245 5243 5244 0
-5237 5232 0
-5237 -5235 0
5237 -5232 5235 0
-5238 -5236 0
-5238 -5237 0
5238 5236 5237 0
-5230 5225 0
-5230 -5228 0
5230 -5225 5228 0
-5231 -5229 0
-5231 -5230 0
5231 5229 5230 0
-5223 5218 0
-5223 -5221 0
5223 -5218 5221 0
-5224 -5222 0
-5224 -5223 0
5224 5222 5223 0
-5216 5211 0
-5216 -5214 0
5216 -5211 5214 0
-5217 -5215 0
-5217 -5216 0
5217 5215 5216 0
-5209 5204 0
-5209 -5207 0
5209 -5204 5207 0
-5210 -5208 0
-5210 -5209 0
5210 5208 5209 0
-5202 5197 0
-5202 -5200 0
5202 -5197 5200 0
-5203 -5201 0
-5203 -5202 0
5203 5201 5202 0
-5195 5190 0
-5195 -5193 0
5195 -5190 5193 0
-5196 -5194 0
-5196 -5195 0
5196 5194 5195 0
-5188 5183 0
-5188 -5186 0
5188 -5183 5186 0
-5189 -5187 0
-5189 -5188 0
5189 5187 5188 0
-5181 5176 0
-5181 -5179 0
5181 -5176 5179 0
-5182 -5180 0
-5182 -5181 0
5182 5180 5181 0
-5174 5169 0
-5174 -5172 0
5174 -5169 5172 0
-5175 -5173 0
-5175 -5174 0
5175 5173 5174 0
-5167 5162 0
-5167 -5165 0
5167 -5162 5165 0
-5168 -5166 0
-5168 -5167 0
5168 5166 5167 0
-5160 5155 0
-5160 -5158 0
5160 -5155 5158 0
-5161 -5159 0
-5161 -5160 0
5161 5159 5160 0
-5153 5148 0
-5153 -5151 0
5153 -5148 5151 0
-5154 -5152 0
-5154 -5153 0
5154 5152 5153 0
-5146 5141 0
-5146 -5144 0
5146 -5141 5144 0
-5147 -5145 0
-5147 -5146 0
5147 5145 5146 0
-5139 5134 0
-5139 -5137 0
5139 -5134 5137 0
-5140 -5138 0
-5140 -5139 0
5140 5138 5139 0
-5132 5127 0
-5132 -5130 0
5132 -5127 5130 0
-5133 -5131 0
-5133 -5132 0
5133 5131 5132 0
-5125 5120 0
-5125 -5123 0
5125 -5120 5123 0
-5126 -5124 0
-5126 -5125 0
5126 5124 5125 0
-5118 5113 0
-5118 -5116 0
5118 -5113 5116 0
-5119 -5117 0
-5119 -5118 0
5119 5117 5118 0
-5111 5106 0
-5111 -5109 0
5111 -5106 5109 0
-5112 -5110 0
-5112 -5111 0
5112 5110 5111 0
-5104 5099 0
-5104 -5102 0
5104 -5099 5102 0
-5105 -5103 0
-5105 -5104 0
5105 5103 5104 0
-5097 5092 0
-5097 -5095 0
5097 -5092 5095 0
-5098 -5096 0
-5098 -5097 0
5098 5096 5097 0
-5090 5085 0
-5090 -5088 0
5090 -5085 5088 0
-5091 -5089 0
-5091 -5090 0
5091 5089 5090 0
-5083 5078 0
-5083 -5081 0
5083 -5078 5081 0
-5084 -5082 0
-5084 -5083 0
5084 5082 5083 0
-5076 5071 0
-5076 -5074 0
5076 -5071 5074 0
-5077 -5075 0
-5077 -5076 0
5077 5075 5076 0
-5069 5064 0
-5069 -5067 0
5069 -5064 5067 0
-5070 -5068 0
-5070 -5069 0
5070 5068 5069 0
-5062 5057 0
-5062 -5060 0
5062 -5057 5060 0
-5063 -5061 0
-5063 -5062 0
5063 5061 5062 0
-5055 5050 0
-5055 -5053 0
5055 -5050 5053 0
-5056 -5054 0
-5056 -5055 0
5056 5054 5055 0
-5048 5043 0
-5048 -5046 0
5048 -5043 5046 0
-5049 -5047 0
-5049 -5048 0
5049 5047 5048 0
-5041 5036 0
-5041 -5039 0
5041 -5036 5039 0
-5042 -5040 0
-5042 -5041 0
5042 5040 5041 0
-5034 5029 0
-5034 -5032 0
5034 -5029 5032 0
-5035 -5033 0
-5035 -5034 0
5035 5033 5034 0
-5027 5022 0
-5027 -5025 0
5027 -5022 5025 0
-5028 -5026 0
-5028 -5027 0
5028 5026 5027 0
-5020 5015 0
-5020 -5018 0
5020 -5015 5018 0
-5021 -5019 0
-5021 -5020 0
5021 5019 5020 0
-5013 5008 0
-5013 -5011 0
5013 -5008 5011 0
-5014 -5012 0
-5014 -5013 0
5014 5012 5013 0
-5006 5001 0
-5006 -5004 0
5006 -5001 5004 0
-5007 -5005 0
-5007 -5006 0
5007 5005 5006 0
-4999 4994 0
-4999 -4997 0
4999 -4994 4997 0
-5000 -4998 0
-5000 -4999 0
5000 4998 4999 0
-4992 4987 0
-4992 -4990 0
4992 -4987 4990 0
-4993 -4991 0
-4993 -4992 0
4993 4991 4992 0
-4985 4980 0
-4985 -4983 0
4985 -4980 4983 0
-4986 -4984 0
-4986 -4985 0
4986 4984 4985 0
-4978 4973 0
-4978 -4976 0
4978 -4973 4976 0
-4979 -4977 0
-4979 -4978 0
4979 4977 4978 0
-4971 4966 0
-4971 -4969 0
4971 -4966 4969 0
-4972 -4970 0
-4972 -4971 0
4972 4970 4971 0
-4964 4959 0
-4964 -4962 0
4964 -4959 4962 0
-4965 -4963 0
-4965 -4964 0
4965 4963 4964 0
-4957 4952 0
-4957 -4955 0
4957 -4952 4955 0
-4958 -4956 0
-4958 -4957 0
4958 4956 4957 0
-4950 4945 0
-4950 -4948 0
4950 -4945 4948 0
-4951 -4949 0
-4951 -4950 0
4951 4949 4950 0
-4943 -4936 0
-4943 -4941 0
4943 4936 4941 0
-4944 -4942 0
-4944 -4943 0
4944 4942 4943 0
-4937 -3057 0
-4937 -3058 0
4937 3057 3058 0
-4938 -4936 0
-4938 -4937 0
4938 4936 4937 0
-5373 3057 0
-5373 4938 0
5373 -3057 -4938 0
-5376 4944 0
-5376 5373 0
5376 -4944 -5373 0
-5379 4951 0
-5379 5376 0
5379 -4951 -5376 0
-5382 4958 0
-5382 5379 0
5382 -4958 -5379 0
-5385 4965 0
-5385 5382 0
5385 -4965 -5382 0
-5388 4972 0
-5388 5385 0
5388 -4972 -5385 0
-5391 4979 0
-5391 5388 0
5391 -4979 -5388 0
-5394 4986 0
-5394 5391 0
5394 -4986 -5391 0
-5397 4993 0
-5397 5394 0
5397 -4993 -5394 0
-5400 5000 0
-5400 5397 0
5400 -5000 -5397 0
-5403 5007 0
-5403 5400 0
5403 -5007 -5400 0
-5406 5014 0
-5406 5403 0
5406 -5014 -5403 0
-5409 5021 0
-5409 5406 0
5409 -5021 -5406 0
-5412 5028 0
-5412 5409 0
5412 -5028 -5409 0
-5415 5035 0
-5415 5412 0
5415 -5035 -5412 0
-5418 5042 0
-5418 5415 0
5418 -5042 -5415 0
-5421 5049 0
-5421 5418 0
5421 -5049 -5418 0
-5424 5056 0
-5424 5421 0
5424 -5056 -5421 0
-5427 5063 0
-5427 5424 0
5427 -5063 -5424 0
-5430 5070 0
-5430 5427 0
5430 -5070 -5427 0
-5433 5077 0
-5433 5430 0
5433 -5077 -5430 0
-5436 5084 0
-5436 5433 0
5436 -5084 -5433 0
-5439 5091 0
-5439 5436 0
5439 -5091 -5436 0
-5442 5098 0
-5442 5439 0
5442 -5098 -5439 0
-5445 5105 0
-5445 5442 0
5445 -5105 -5442 0
-5448 5112 0
-5448 5445 0
5448 -5112 -5445 0
-5451 5119 0
-5451 5448 0
5451 -5119 -5448 0
-5454 5126 0
-5454 5451 0
5454 -5126 -5451 0
-5457 5133 0
-5457 5454 0
5457 -5133 -5454 0
-5460 5140 0
-5460 5457 0
5460 -5140 -5457 0
-5463 5147 0
-5463 5460 0
5463 -5147 -5460 0
-5466 5154 0
-5466 5463 0
5466 -5154 -5463 0
-5469 5161 0
-5469 5466 0
5469 -5161 -5466 0
-5472 5168 0
-5472 5469 0
5472 -5168 -5469 0
-5475 5175 0
-5475 5472 0
5475 -5175 -5472 0
-5478 5182 0
-5478 5475 0
5478 -5182 -5475 0
-5481 5189 0
-5481 5478 0
5481 -5189 -5478 0
-5484 5196 0
-5484 5481 0
5484 -5196 -5481 0
-5487 5203 0
-5487 5484 0
5487 -5203 -5484 0
-5490 5210 0
-5490 5487 0
5490 -5210 -5487 0
-5493 5217 0
-5493 5490 0
5493 -5217 -5490 0
-5496 5224 0
-5496 5493 0
5496 -5224 -5493 0
-5499 5231 0
-5499 5496 0
5499 -5231 -5496 0
-5502 5238 0
-5502 5499 0
5502 -5238 -5499 0
-5505 5245 0
-5505 5502 0
5505 -5245 -5502 0
-5508 5252 0
-5508 5505 0
5508 -5252 -5505 0
-5511 5259 0
-5511 5508 0
5511 -5259 -5508 0
-5514 5266 0
-5514 5511 0
5514 -5266 -5511 0
-5517 5273 0
-5517 5514 0
5517 -5273 -5514 0
-5520 5280 0
-5520 5517 0
5520 -5280 -5517 0
-5523 5287 0
-5523 5520 0
5523 -5287 -5520 0
-5526 5294 0
-5526 5523 0
5526 -5294 -5523 0
-5529 5301 0
-5529 5526 0
5529 -5301 -5526 0
-5532 5308 0
-5532 5529 0
5532 -5308 -5529 0
-5535 5315 0
-5535 5532 0
5535 -5315 -5532 0
-5538 5322 0
-5538 5535 0
5538 -5322 -5535 0
-5541 5329 0
-5541 5538 0
5541 -5329 -5538 0
-5544 5336 0
-5544 5541 0
5544 -5336 -5541 0
-5547 5343 0
-5547 5544 0
5547 -5343 -5544 0
-5550 5350 0
-5550 5547 0
5550 -5350 -5547 0
-5553 5357 0
-5553 5550 0
5553 -5357 -5550 0
-5556 5364 0
-5556 5553 0
5556 -5364 -5553 0
-5559 5371 0
-5559 5556 0
5559 -5371 -5556 0
-5560 -5371 0
-5560 -5556 0
5560 5371 5556 0
-5561 -5559 0
-5561 -5560 0
5561 5559 5560 0
-5748 4934 0
-5748 -5561 0
5748 -4934 5561 0
-5749 -4934 0
-5749 5561 0
5749 4934 -5561 0
-5750 -5748 0
-5750 -5749 0
5750 5748 5749 0
4933 -16827 0
-4933 16827 0
-5557 -5364 0
-5557 -5553 0
5557 5364 5553 0
-5558 -5556 0
-5558 -5557 0
5558 5556 5557 0
-5745 4933 0
-5745 -5558 0
5745 -4933 5558 0
-5746 -4933 0
-5746 5558 0
5746 4933 -5558 0
-5747 -5745 0
-5747 -5746 0
5747 5745 5746 0
4932 -16826 0
-4932 16826 0
-5554 -5357 0
-5554 -5550 0
5554 5357 5550 0
-5555 -5553 0
-5555 -5554 0
5555 5553 5554 0
-5742 4932 0
-5742 -5555 0
5742 -4932 5555 0
-5743 -4932 0
-5743 5555 0
5743 4932 -5555 0
-5744 -5742 0
-5744 -5743 0
5744 5742 5743 0
4931 -16825 0
-4931 16825 0
-5551 -5350 0
-5551 -5547 0
5551 5350 5547 0
-5552 -5550 0
-5552 -5551 0
5552 5550 5551 0
-5739 4931 0
-5739 -5552 0
5739 -4931 5552 0
-5740 -4931 0
-5740 5552 0
5740 4931 -5552 0
-5741 -5739 0
-5741 -5740 0
5741 5739 5740 0
4930 -16824 0
-4930 16824 0
-5548 -5343 0
-5548 -5544 0
5548 5343 5544 0
-5549 -5547 0
-5549 -5548 0
5549 5547 5548 0
-5736 4930 0
-5736 -5549 0
5736 -4930 5549 0
-5737 -4930 0
-5737 5549 0
5737 4930 -5549 0
-5738 -5736 0
-5738 -5737 0
5738 5736 5737 0
4929 -16823 0
-4929 16823 0
-5545 -5336 0
-5545 -5541 0
5545 5336 5541 0
-5546 -5544 0
-5546 -5545 0
5546 5544 5545 0
-5733 4929 0
-5733 -5546 0
5733 -4929 5546 0
-5734 -4929 0
-5734 5546 0
5734 4929 -5546 0
-5735 -5733 0
-5735 -5734 0
5735 5733 5734 0
4928 -16822 0
-4928 16822 0
-5542 -5329 0
-5542 -5538 0
5542 5329 5538 0
-5543 -5541 0
-5543 -5542 0
5543 5541 5542 0
-5730 4928 0
-5730 -5543 0
5730 -4928 5543 0
-5731 -4928 0
-5731 5543 0
5731 4928 -5543 0
-5732 -5730 0
-5732 -5731 0
5732 5730 5731 0
4927 -16821 0
-4927 16821 0
-5539 -5322 0
-5539 -5535 0
5539 5322 5535 0
-5540 -5538 0
-5540 -5539 0
5540 5538 5539 0
-5727 4927 0
-5727 -5540 0
5727 -4927 5540 0
-5728 -4927 0
-5728 5540 0
5728 4927 -5540 0
-5729 -5727 0
-5729 -5728 0
5729 5727 5728 0
4926 -16820 0
-4926 16820 0
-5536 -5315 0
-5536 -5532 0
5536 5315 5532 0
-5537 -5535 0
-5537 -5536 0
5537 5535 5536 0
-5724 4926 0
-5724 -5537 0
5724 -4926 5537 0
-5725 -4926 0
-5725 5537 0
5725 4926 -5537 0
-5726 -5724 0
-5726 -5725 0
5726 5724 5725 0
4925 -16819 0
-4925 16819 0
-5533 -5308 0
-5533 -5529 0
5533 5308 5529 0
-5534 -5532 0
-5534 -5533 0
5534 5532 5533 0
-5721 4925 0
-5721 -5534 0
5721 -4925 5534 0
-5722 -4925 0
-5722 5534 0
5722 4925 -5534 0
-5723 -5721 0
-5723 -5722 0
5723 5721 5722 0
4924 -16818 0
-4924 16818 0
-5530 -5301 0
-5530 -5526 0
5530 5301 5526 0
-5531 -5529 0
-5531 -5530 0
5531 5529 5530 0
-5718 4924 0
-5718 -5531 0
5718 -4924 5531 0
-5719 -4924 0
-5719 5531 0
5719 4924 -5531 0
-5720 -5718 0
-5720 -5719 0
5720 5718 5719 0
4923 -16817 0
-4923 16817 0
-5527 -5294 0
-5527 -5523 0
5527 5294 5523 0
-5528 -5526 0
-5528 -5527 0
5528 5526 5527 0
-5715 4923 0
-5715 -5528 0
5715 -4923 5528 0
-5716 -4923 0
-5716 5528 0
5716 4923 -5528 0
-5717 -5715 0
-5717 -5716 0
5717 5715 5716 0
4922 -16816 0
-4922 16816 0
-5524 -5287 0
-5524 -5520 0
5524 5287 5520 0
-5525 -5523 0
-5525 -5524 0
5525 5523 5524 0
-5712 4922 0
-5712 -5525 0
5712 -4922 5525 0
-5713 -4922 0
-5713 5525 0
5713 4922 -5525 0
-5714 -5712 0
-5714 -5713 0
5714 5712 5713 0
4921 -16815 0
-4921 16815 0
-5521 -5280 0
-5521 -5517 0
5521 5280 5517 0
-5522 -5520 0
-5522 -5521 0
5522 5520 5521 0
-5709 4921 0
-5709 -5522 0
5709 -4921 5522 0
-5710 -4921 0
-5710 5522 0
5710 4921 -5522 0
-5711 -5709 0
-5711 -5710 0
5711 5709 5710 0
4920 -16814 0
-4920 16814 0
-5518 -5273 0
-5518 -5514 0
5518 5273 5514 0
-5519 -5517 0
-5519 -5518 0
5519 5517 5518 0
-5706 4920 0
-5706 -5519 0
5706 -4920 5519 0
-5707 -4920 0
-5707 5519 0
5707 4920 -5519 0
-5708 -5706 0
-5708 -5707 0
5708 5706 5707 0
4919 -16813 0
-4919 16813 0
-5515 -5266 0
-5515 -5511 0
5515 5266 5511 0
-5516 -5514 0
-5516 -5515 0
5516 5514 5515 0
-5703 4919 0
-5703 -5516 0
5703 -4919 5516 0
-5704 -4919 0
-5704 5516 0
5704 4919 -5516 0
-5705 -5703 0
-5705 -5704 0
5705 5703 5704 0
4918 -16812 0
-4918 16812 0
-5512 -5259 0
-5512 -5508 0
5512 5259 5508 0
-5513 -5511 0
-5513 -5512 0
5513 5511 5512 0
-5700 4918 0
-5700 -5513 0
5700 -4918 5513 0
-5701 -4918 0
-5701 5513 0
5701 4918 -5513 0
-5702 -5700 0
-5702 -5701 0
5702 5700 5701 0
4917 -16811 0
-4917 16811 0
-5509 -5252 0
-5509 -5505 0
5509 5252 5505 0
-5510 -5508 0
-5510 -5509 0
5510 5508 5509 0
-5697 4917 0
-5697 -5510 0
5697 -4917 5510 0
-5698 -4917 0
-5698 5510 0
5698 4917 -5510 0
-5699 -5697 0
-5699 -5698 0
5699 5697 5698 0
4916 -16810 0
-4916 16810 0
-5506 -5245 0
-5506 -5502 0
5506 5245 5502 0
-5507 -5505 0
-5507 -5506 0
5507 5505 5506 0
-5694 4916 0
-5694 -5507 0
5694 -4916 5507 0
-5695 -4916 0
-5695 5507 0
5695 4916 -5507 0
-5696 -5694 0
-5696 -5695 0
5696 5694 5695 0
4915 -16809 0
-4915 16809 0
-5503 -5238 0
-5503 -5499 0
5503 5238 5499 0
-5504 -5502 0
-5504 -5503 0
5504 5502 5503 0
-5691 4915 0
-5691 -5504 0
5691 -4915 5504 0
-5692 -4915 0
-5692 5504 0
5692 4915 -5504 0
-5693 -5691 0
-5693 -5692 0
5693 5691 5692 0
4914 -16808 0
-4914 16808 0
-5500 -5231 0
-5500 -5496 0
5500 5231 5496 0
-5501 -5499 0
-5501 -5500 0
5501 5499 5500 0
-5688 4914 0
-5688 -5501 0
5688 -4914 5501 0
-5689 -4914 0
-5689 5501 0
5689 4914 -5501 0
-5690 -5688 0
-5690 -5689 0
5690 5688 5689 0
4913 -16807 0
-4913 16807 0
-5497 -5224 0
-5497 -5493 0
5497 5224 5493 0
-5498 -5496 0
-5498 -5497 0
5498 5496 5497 0
-5685 4913 0
-5685 -5498 0
5685 -4913 5498 0
-5686 -4913 0
-5686 5498 0
5686 4913 -5498 0
-5687 -5685 0
-5687 -5686 0
5687 5685 5686 0
4912 -16806 0
-4912 16806 0
-5494 -5217 0
-5494 -5490 0
5494 5217 5490 0
-5495 -5493 0
-5495 -5494 0
5495 5493 5494 0
-5682 4912 0
-5682 -5495 0
5682 -4912 5495 0
-5683 -4912 0
-5683 5495 0
5683 4912 -5495 0
-5684 -5682 0
-5684 -5683 0
5684 5682 5683 0
4911 -16805 0
-4911 16805 0
-5491 -5210 0
-5491 -5487 0
5491 5210 5487 0
-5492 -5490 0
-5492 -5491 0
5492 5490 5491 0
-5679 4911 0
-5679 -5492 0
5679 -4911 5492 0
-5680 -4911 0
-5680 5492 0
5680 4911 -5492 0
-5681 -5679 0
-5681 -5680 0
5681 5679 5680 0
4910 -16804 0
-4910 16804 0
-5488 -5203 0
-5488 -5484 0
5488 5203 5484 0
-5489 -5487 0
-5489 -5488 0
5489 5487 5488 0
-5676 4910 0
-5676 -5489 0
5676 -4910 5489 0
-5677 -4910 0
-5677 5489 0
5677 4910 -5489 0
-5678 -5676 0
-5678 -5677 0
5678 5676 5677 0
4909 -16803 0
-4909 16803 0
-5485 -5196 0
-5485 -5481 0
5485 5196 5481 0
-5486 -5484 0
-5486 -5485 0
5486 5484 5485 0
-5673 4909 0
-5673 -5486 0
5673 -4909 5486 0
-5674 -4909 0
-5674 5486 0
5674 4909 -5486 0
-5675 -5673 0
-5675 -5674 0
5675 5673 5674 0
4908 -16802 0
-4908 16802 0
-5482 -5189 0
-5482 -5478 0
5482 5189 5478 0
-5483 -5481 0
-5483 -5482 0
5483 5481 5482 0
-5670 4908 0
-5670 -5483 0
5670 -4908 5483 0
-5671 -4908 0
-5671 5483 0
5671 4908 -5483 0
-5672 -5670 0
-5672 -5671 0
5672 5670 5671 0
4907 -16801 0
-4907 16801 0
-5479 -5182 0
-5479 -5475 0
5479 5182 5475 0
-5480 -5478 0
-5480 -5479 0
5480 5478 5479 0
-5667 4907 0
-5667 -5480 0
5667 -4907 5480 0
-5668 -4907 0
-5668 5480 0
5668 4907 -5480 0
-5669 -5667 0
-5669 -5668 0
5669 5667 5668 0
4906 -16800 0
-4906 16800 0
-5476 -5175 0
-5476 -5472 0
5476 5175 5472 0
-5477 -5475 0
-5477 -5476 0
5477 5475 5476 0
-5664 4906 0
-5664 -5477 0
5664 -4906 5477 0
-5665 -4906 0
-5665 5477 0
5665 4906 -5477 0
-5666 -5664 0
-5666 -5665 0
5666 5664 5665 0
4905 -16799 0
-4905 16799 0
-5473 -5168 0
-5473 -5469 0
5473 5168 5469 0
-5474 -5472 0
-5474 -5473 0
5474 5472 5473 0
-5661 4905 0
-5661 -5474 0
5661 -4905 5474 0
-5662 -4905 0
-5662 5474 0
5662 4905 -5474 0
-5663 -5661 0
-5663 -5662 0
5663 5661 5662 0
4904 -16798 0
-4904 16798 0
-5470 -5161 0
-5470 -5466 0
5470 5161 5466 0
-5471 -5469 0
-5471 -5470 0
5471 5469 5470 0
-5658 4904 0
-5658 -5471 0
5658 -4904 5471 0
-5659 -4904 0
-5659 5471 0
5659 4904 -5471 0
-5660 -5658 0
-5660 -5659 0
5660 5658 5659 0
4903 -16797 0
-4903 16797 0
-5467 -5154 0
-5467 -5463 0
5467 5154 5463 0
-5468 -5466 0
-5468 -5467 0
5468 5466 5467 0
-5655 4903 0
-5655 -5468 0
5655 -4903 5468 0
-5656 -4903 0
-5656 5468 0
5656 4903 -5468 0
-5657 -5655 0
-5657 -5656 0
5657 5655 5656 0
4902 -16796 0
-4902 16796 0
-5464 -5147 0
-5464 -5460 0
5464 5147 5460 0
-5465 -5463 0
-5465 -5464 0
5465 5463 5464 0
-5652 4902 0
-5652 -5465 0
5652 -4902 5465 0
-5653 -4902 0
-5653 5465 0
5653 4902 -5465 0
-5654 -5652 0
-5654 -5653 0
5654 5652 5653 0
4901 -16795 0
-4901 16795 0
-5461 -5140 0
-5461 -5457 0
5461 5140 5457 0
-5462 -5460 0
-5462 -5461 0
5462 5460 5461 0
-5649 4901 0
-5649 -5462 0
5649 -4901 5462 0
-5650 -4901 0
-5650 5462 0
5650 4901 -5462 0
-5651 -5649 0
-5651 -5650 0
5651 5649 5650 0
4900 -16794 0
-4900 16794 0
-5458 -5133 0
-5458 -5454 0
5458 5133 5454 0
-5459 -5457 0
-5459 -5458 0
5459 5457 5458 0
-5646 4900 0
-5646 -5459 0
5646 -4900 5459 0
-5647 -4900 0
-5647 5459 0
5647 4900 -5459 0
-5648 -5646 0
-5648 -5647 0
5648 5646 5647 0
4899 -16793 0
-4899 16793 0
-5455 -5126 0
-5455 -5451 0
5455 5126 5451 0
-5456 -5454 0
-5456 -5455 0
5456 5454 5455 0
-5643 4899 0
-5643 -5456 0
5643 -4899 5456 0
-5644 -4899 0
-5644 5456 0
5644 4899 -5456 0
-5645 -5643 0
-5645 -5644 0
5645 5643 5644 0
4898 -16792 0
-4898 16792 0
-5452 -5119 0
-5452 -5448 0
5452 5119 5448 0
-5453 -5451 0
-5453 -5452 0
5453 5451 5452 0
-5640 4898 0
-5640 -5453 0
5640 -4898 5453 0
-5641 -4898 0
-5641 5453 0
5641 4898 -5453 0
-5642 -5640 0
-5642 -5641 0
5642 5640 5641 0
4897 -16791 0
-4897 16791 0
-5449 -5112 0
-5449 -5445 0
5449 5112 5445 0
-5450 -5448 0
-5450 -5449 0
5450 5448 5449 0
-5637 4897 0
-5637 -5450 0
5637 -4897 5450 0
-5638 -4897 0
-5638 5450 0
5638 4897 -5450 0
-5639 -5637 0
-5639 -5638 0
5639 5637 5638 0
4896 -16790 0
-4896 16790 0
-5446 -5105 0
-5446 -5442 0
5446 5105 5442 0
-5447 -5445 0
-5447 -5446 0
5447 5445 5446 0
-5634 4896 0
-5634 -5447 0
5634 -4896 5447 0
-5635 -4896 0
-5635 5447 0
5635 4896 -5447 0
-5636 -5634 0
-5636 -5635 0
5636 5634 5635 0
4895 -16789 0
-4895 16789 0
-5443 -5098 0
-5443 -5439 0
5443 5098 5439 0
-5444 -5442 0
-5444 -5443 0
5444 5442 5443 0
-5631 4895 0
-5631 -5444 0
5631 -4895 5444 0
-5632 -4895 0
-5632 5444 0
5632 4895 -5444 0
-5633 -5631 0
-5633 -5632 0
5633 5631 5632 0
4894 -16788 0
-4894 16788 0
-5440 -5091 0
-5440 -5436 0
5440 5091 5436 0
-5441 -5439 0
-5441 -5440 0
5441 5439 5440 0
-5628 4894 0
-5628 -5441 0
5628 -4894 5441 0
-5629 -4894 0
-5629 5441 0
5629 4894 -5441 0
-5630 -5628 0
-5630 -5629 0
5630 5628 5629 0
4893 -16787 0
-4893 16787 0
-5437 -5084 0
-5437 -5433 0
5437 5084 5433 0
-5438 -5436 0
-5438 -5437 0
5438 5436 5437 0
-5625 4893 0
-5625 -5438 0
5625 -4893 5438 0
-5626 -4893 0
-5626 5438 0
5626 4893 -5438 0
-5627 -5625 0
-5627 -5626 0
5627 5625 5626 0
4892 -16786 0
-4892 16786 0
-5434 -5077 0
-5434 -5430 0
5434 5077 5430 0
-5435 -5433 0
-5435 -5434 0
5435 5433 5434 0
-5622 4892 0
-5622 -5435 0
5622 -4892 5435 0
-5623 -4892 0
-5623 5435 0
5623 4892 -5435 0
-5624 -5622 0
-5624 -5623 0
5624 5622 5623 0
4891 -16785 0
-4891 16785 0
-5431 -5070 0
-5431 -5427 0
5431 5070 5427 0
-5432 -5430 0
-5432 -5431 0
5432 5430 5431 0
-5619 4891 0
-5619 -5432 0
5619 -4891 5432 0
-5620 -4891 0
-5620 5432 0
5620 4891 -5432 0
-5621 -5619 0
-5621 -5620 0
5621 5619 5620 0
4890 -16784 0
-4890 16784 0
-5428 -5063 0
-5428 -5424 0
5428 5063 5424 0
-5429 -5427 0
-5429 -5428 0
5429 5427 5428 0
-5616 4890 0
-5616 -5429 0
5616 -4890 5429 0
-5617 -4890 0
-5617 5429 0
5617 4890 -5429 0
-5618 -5616 0
-5618 -5617 0
5618 5616 5617 0
4889 -16783 0
-4889 16783 0
-5425 -5056 0
-5425 -5421 0
5425 5056 5421 0
-5426 -5424 0
-5426 -5425 0
5426 5424 5425 0
-5613 4889 0
-5613 -5426 0
5613 -4889 5426 0
-5614 -4889 0
-5614 5426 0
5614 4889 -5426 0
-5615 -5613 0
-5615 -5614 0
5615 5613 5614 0
4888 -16782 0
-4888 16782 0
-5422 -5049 0
-5422 -5418 0
5422 5049 5418 0
-5423 -5421 0
-5423 -5422 0
5423 5421 5422 0
-5610 4888 0
-5610 -5423 0
5610 -4888 5423 0
-5611 -4888 0
-5611 5423 0
5611 4888 -5423 0
-5612 -5610 0
-5612 -5611 0
5612 5610 5611 0
4887 -16781 0
-4887 16781 0
-5419 -5042 0
-5419 -5415 0
5419 5042 5415 0
-5420 -5418 0
-5420 -5419 0
5420 5418 5419 0
-5607 4887 0
-5607 -5420 0
5607 -4887 5420 0
-5608 -4887 0
-5608 5420 0
5608 4887 -5420 0
-5609 -5607 0
-5609 -5608 0
5609 5607 5608 0
4886 -16780 0
-4886 16780 0
-5416 -5035 0
-5416 -5412 0
5416 5035 5412 0
-5417 -5415 0
-5417 -5416 0
5417 5415 5416 0
-5604 4886 0
-5604 -5417 0
5604 -4886 5417 0
-5605 -4886 0
-5605 5417 0
5605 4886 -5417 0
-5606 -5604 0
-5606 -5605 0
5606 5604 5605 0
4885 -16779 0
-4885 16779 0
-5413 -5028 0
-5413 -5409 0
5413 5028 5409 0
-5414 -5412 0
-5414 -5413 0
5414 5412 5413 0
-5601 4885 0
-5601 -5414 0
5601 -4885 5414 0
-5602 -4885 0
-5602 5414 0
5602 4885 -5414 0
-5603 -5601 0
-5603 -5602 0
5603 5601 5602 0
4884 -16778 0
-4884 16778 0
-5410 -5021 0
-5410 -5406 0
5410 5021 5406 0
-5411 -5409 0
-5411 -5410 0
5411 5409 5410 0
-5598 4884 0
-5598 -5411 0
5598 -4884 5411 0
-5599 -4884 0
-5599 5411 0
5599 4884 -5411 0
-5600 -5598 0
-5600 -5599 0
5600 5598 5599 0
4883 -16777 0
-4883 16777 0
-5407 -5014 0
-5407 -5403 0
5407 5014 5403 0
-5408 -5406 0
-5408 -5407 0
5408 5406 5407 0
-5595 4883 0
-5595 -5408 0
5595 -4883 5408 0
-5596 -4883 0
-5596 5408 0
5596 4883 -5408 0
-5597 -5595 0
-5597 -5596 0
5597 5595 5596 0
4882 -16776 0
-4882 16776 0
-5404 -5007 0
-5404 -5400 0
5404 5007 5400 0
-5405 -5403 0
-5405 -5404 0
5405 5403 5404 0
-5592 4882 0
-5592 -5405 0
5592 -4882 5405 0
-5593 -4882 0
-5593 5405 0
5593 4882 -5405 0
-5594 -5592 0
-5594 -5593 0
5594 5592 5593 0
4881 -16775 0
-4881 16775 0
-5401 -5000 0
-5401 -5397 0
5401 5000 5397 0
-5402 -5400 0
-5402 -5401 0
5402 5400 5401 0
-5589 4881 0
-5589 -5402 0
5589 -4881 5402 0
-5590 -4881 0
-5590 5402 0
5590 4881 -5402 0
-5591 -5589 0
-5591 -5590 0
5591 5589 5590 0
4880 -16774 0
-4880 16774 0
-5398 -4993 0
-5398 -5394 0
5398 4993 5394 0
-5399 -5397 0
-5399 -5398 0
5399 5397 5398 0
-5586 4880 0
-5586 -5399 0
5586 -4880 5399 0
-5587 -4880 0
-5587 5399 0
5587 4880 -5399 0
-5588 -5586 0
-5588 -5587 0
5588 5586 5587 0
4879 -16773 0
-4879 16773 0
-5395 -4986 0
-5395 -5391 0
5395 4986 5391 0
-5396 -5394 0
-5396 -5395 0
5396 5394 5395 0
-5583 4879 0
-5583 -5396 0
5583 -4879 5396 0
-5584 -4879 0
-5584 5396 0
5584 4879 -5396 0
-5585 -5583 0
-5585 -5584 0
5585 5583 5584 0
4878 -16772 0
-4878 16772 0
-5392 -4979 0
-5392 -5388 0
5392 4979 5388 0
-5393 -5391 0
-5393 -5392 0
5393 5391 5392 0
-5580 4878 0
-5580 -5393 0
5580 -4878 5393 0
-5581 -4878 0
-5581 5393 0
5581 4878 -5393 0
-5582 -5580 0
-5582 -5581 0
5582 5580 5581 0
4877 -16771 0
-4877 16771 0
-5389 -4972 0
-5389 -5385 0
5389 4972 5385 0
-5390 -5388 0
-5390 -5389 0
5390 5388 5389 0
-5577 4877 0
-5577 -5390 0
5577 -4877 5390 0
-5578 -4877 0
-5578 5390 0
5578 4877 -5390 0
-5579 -5577 0
-5579 -5578 0
5579 5577 5578 0
4876 -16770 0
-4876 16770 0
-5386 -4965 0
-5386 -5382 0
5386 4965 5382 0
-5387 -5385 0
-5387 -5386 0
5387 5385 5386 0
-5574 4876 0
-5574 -5387 0
5574 -4876 5387 0
-5575 -4876 0
-5575 5387 0
5575 4876 -5387 0
-5576 -5574 0
-5576 -5575 0
5576 5574 5575 0
4875 -16769 0
-4875 16769 0
-5383 -4958 0
-5383 -5379 0
5383 4958 5379 0
-5384 -5382 0
-5384 -5383 0
5384 5382 5383 0
-5571 4875 0
-5571 -5384 0
5571 -4875 5384 0
-5572 -4875 0
-5572 5384 0
5572 4875 -5384 0
-5573 -5571 0
-5573 -5572 0
5573 5571 5572 0
4874 -16768 0
-4874 16768 0
-5380 -4951 0
-5380 -5376 0
5380 4951 5376 0
-5381 -5379 0
-5381 -5380 0
5381 5379 5380 0
-5568 4874 0
-5568 -5381 0
5568 -4874 5381 0
-5569 -4874 0
-5569 5381 0
5569 4874 -5381 0
-5570 -5568 0
-5570 -5569 0
5570 5568 5569 0
4872 -16766 0
-4872 16766 0
-5374 -3057 0
-5374 -4938 0
5374 3057 4938 0
-5375 -5373 0
-5375 -5374 0
5375 5373 5374 0
-5562 4872 0
-5562 -5375 0
5562 -4872 5375 0
-5563 -4872 0
-5563 5375 0
5563 4872 -5375 0
-5564 -5562 0
-5564 -5563 0
5564 5562 5563 0
4873 -16767 0
-4873 16767 0
-5377 -4944 0
-5377 -5373 0
5377 4944 5373 0
-5378 -5376 0
-5378 -5377 0
5378 5376 5377 0
-5565 4873 0
-5565 -5378 0
5565 -4873 5378 0
-5566 -4873 0
-5566 5378 0
5566 4873 -5378 0
-5567 -5565 0
-5567 -5566 0
5567 5565 5566 0
-5751 5564 0
-5751 5567 0
5751 -5564 -5567 0
-5752 5570 0
-5752 5751 0
5752 -5570 -5751 0
-5753 5573 0
-5753 5752 0
5753 -5573 -5752 0
-5754 5576 0
-5754 5753 0
5754 -5576 -5753 0
-5755 5579 0
-5755 5754 0
5755 -5579 -5754 0
-5756 5582 0
-5756 5755 0
5756 -5582 -5755 0
-5757 5585 0
-5757 5756 0
5757 -5585 -5756 0
-5758 5588 0
-5758 5757 0
5758 -5588 -5757 0
-5759 5591 0
-5759 5758 0
5759 -5591 -5758 0
-5760 5594 0
-5760 5759 0
5760 -5594 -5759 0
-5761 5597 0
-5761 5760 0
5761 -5597 -5760 0
-5762 5600 0
-5762 5761 0
5762 -5600 -5761 0
-5763 5603 0
-5763 5762 0
5763 -5603 -5762 0
-5764 5606 0
-5764 5763 0
5764 -5606 -5763 0
-5765 5609 0
-5765 5764 0
5765 -5609 -5764 0
-5766 5612 0
-5766 5765 0
5766 -5612 -5765 0
-5767 5615 0
-5767 5766 0
5767 -5615 -5766 0
-5768 5618 0
-5768 5767 0
5768 -5618 -5767 0
-5769 5621 0
-5769 5768 0
5769 -5621 -5768 0
-5770 5624 0
-5770 5769 0
5770 -5624 -5769 0
-5771 5627 0
-5771 5770 0
5771 -5627 -5770 0
-5772 5630 0
-5772 5771 0
5772 -5630 -5771 0
-5773 5633 0
-5773 5772 0
5773 -5633 -5772 0
-5774 5636 0
-5774 5773 0
5774 -5636 -5773 0
-5775 5639 0
-5775 5774 0
5775 -5639 -5774 0
-5776 5642 0
-5776 5775 0
5776 -5642 -5775 0
-5777 5645 0
-5777 5776 0
5777 -5645 -5776 0
-5778 5648 0
-5778 5777 0
5778 -5648 -5777 0
-5779 5651 0
-5779 5778 0
5779 -5651 -5778 0
-5780 5654 0
-5780 5779 0
5780 -5654 -5779 0
-5781 5657 0
-5781 5780 0
5781 -5657 -5780 0
-5782 5660 0
-5782 5781 0
5782 -5660 -5781 0
-5783 5663 0
-5783 5782 0
5783 -5663 -5782 0
-5784 5666 0
-5784 5783 0
5784 -5666 -5783 0
-5785 5669 0
-5785 5784 0
5785 -5669 -5784 0
-5786 5672 0
-5786 5785 0
5786 -5672 -5785 0
-5787 5675 0
-5787 5786 0
5787 -5675 -5786 0
-5788 5678 0
-5788 5787 0
5788 -5678 -5787 0
-5789 5681 0
-5789 5788 0
5789 -5681 -5788 0
-5790 5684 0
-5790 5789 0
5790 -5684 -5789 0
-5791 5687 0
-5791 5790 0
5791 -5687 -5790 0
-5792 5690 0
-5792 5791 0
5792 -5690 -5791 0
-5793 5693 0
-5793 5792 0
5793 -5693 -5792 0
-5794 5696 0
-5794 5793 0
5794 -5696 -5793 0
-5795 5699 0
-5795 5794 0
5795 -5699 -5794 0
-5796 5702 0
-5796 5795 0
5796 -5702 -5795 0
-5797 5705 0
-5797 5796 0
5797 -5705 -5796 0
-5798 5708 0
-5798 5797 0
5798 -5708 -5797 0
-5799 5711 0
-5799 5798 0
5799 -5711 -5798 0
-5800 5714 0
-5800 5799 0
5800 -5714 -5799 0
-5801 5717 0
-5801 5800 0
5801 -5717 -5800 0
-5802 5720 0
-5802 5801 0
5802 -5720 -5801 0
-5803 5723 0
-5803 5802 0
5803 -5723 -5802 0
-5804 5726 0
-5804 5803 0
5804 -5726 -5803 0
-5805 5729 0
-5805 5804 0
5805 -5729 -5804 0
-5806 5732 0
-5806 5805 0
5806 -5732 -5805 0
-5807 5735 0
-5807 5806 0
5807 -5735 -5806 0
-5808 5738 0
-5808 5807 0
5808 -5738 -5807 0
-5809 5741 0
-5809 5808 0
5809 -5741 -5808 0
-5810 5744 0
-5810 5809 0
5810 -5744 -5809 0
-5811 5747 0
-5811 5810 0
5811 -5747 -5810 0
-5812 5750 0
-5812 5811 0
5812 -5750 -5811 0
-5813 -4935 0
-5813 5812 0
5813 4935 -5812 0
-5814 4266 0
-5814 -5813 0
5814 -4266 5813 0
-5815 4871 0
-5815 -5814 0
5815 -4871 5814 0
-6002 -4371 0
-6002 4934 0
6002 4371 -4934 0
-6003 4371 0
-6003 -4934 0
6003 -4371 4934 0
-6004 -6002 0
-6004 -6003 0
6004 6002 6003 0
-5999 -4370 0
-5999 4933 0
5999 4370 -4933 0
-6000 4370 0
-6000 -4933 0
6000 -4370 4933 0
-6001 -5999 0
-6001 -6000 0
6001 5999 6000 0
-5996 -4369 0
-5996 4932 0
5996 4369 -4932 0
-5997 4369 0
-5997 -4932 0
5997 -4369 4932 0
-5998 -5996 0
-5998 -5997 0
5998 5996 5997 0
-5993 -4368 0
-5993 4931 0
5993 4368 -4931 0
-5994 4368 0
-5994 -4931 0
5994 -4368 4931 0
-5995 -5993 0
-5995 -5994 0
5995 5993 5994 0
-5990 -4367 0
-5990 4930 0
5990 4367 -4930 0
-5991 4367 0
-5991 -4930 0
5991 -4367 4930 0
-5992 -5990 0
-5992 -5991 0
5992 5990 5991 0
-5987 -4366 0
-5987 4929 0
5987 4366 -4929 0
-5988 4366 0
-5988 -4929 0
5988 -4366 4929 0
-5989 -5987 0
-5989 -5988 0
5989 5987 5988 0
-5984 -4365 0
-5984 4928 0
5984 4365 -4928 0
-5985 4365 0
-5985 -4928 0
5985 -4365 4928 0
-5986 -5984 0
-5986 -5985 0
5986 5984 5985 0
-5981 -4364 0
-5981 4927 0
5981 4364 -4927 0
-5982 4364 0
-5982 -4927 0
5982 -4364 4927 0
-5983 -5981 0
-5983 -5982 0
5983 5981 5982 0
-5978 -4363 0
-5978 4926 0
5978 4363 -4926 0
-5979 4363 0
-5979 -4926 0
5979 -4363 4926 0
-5980 -5978 0
-5980 -5979 0
5980 5978 5979 0
-5975 -4362 0
-5975 4925 0
5975 4362 -4925 0
-5976 4362 0
-5976 -4925 0
5976 -4362 4925 0
-5977 -5975 0
-5977 -5976 0
5977 5975 5976 0
-5972 -4361 0
-5972 4924 0
5972 4361 -4924 0
-5973 4361 0
-5973 -4924 0
5973 -4361 4924 0
-5974 -5972 0
-5974 -5973 0
5974 5972 5973 0
-5969 -4360 0
-5969 4923 0
5969 4360 -4923 0
-5970 4360 0
-5970 -4923 0
5970 -4360 4923 0
-5971 -5969 0
-5971 -5970 0
5971 5969 5970 0
-5966 -4359 0
-5966 4922 0
5966 4359 -4922 0
-5967 4359 0
-5967 -4922 0
5967 -4359 4922 0
-5968 -5966 0
-5968 -5967 0
5968 5966 5967 0
-5963 -4358 0
-5963 4921 0
5963 4358 -4921 0
-5964 4358 0
-5964 -4921 0
5964 -4358 4921 0
-5965 -5963 0
-5965 -5964 0
5965 5963 5964 0
-5960 -4357 0
-5960 4920 0
5960 4357 -4920 0
-5961 4357 0
-5961 -4920 0
5961 -4357 4920 0
-5962 -5960 0
-5962 -5961 0
5962 5960 5961 0
-5957 -4356 0
-5957 4919 0
5957 4356 -4919 0
-5958 4356 0
-5958 -4919 0
5958 -4356 4919 0
-5959 -5957 0
-5959 -5958 0
5959 5957 5958 0
-5954 -4355 0
-5954 4918 0
5954 4355 -4918 0
-5955 4355 0
-5955 -4918 0
5955 -4355 4918 0
-5956 -5954 0
-5956 -5955 0
5956 5954 5955 0
-5951 -4354 0
-5951 4917 0
5951 4354 -4917 0
-5952 4354 0
-5952 -4917 0
5952 -4354 4917 0
-5953 -5951 0
-5953 -5952 0
5953 5951 5952 0
-5948 -4353 0
-5948 4916 0
5948 4353 -4916 0
-5949 4353 0
-5949 -4916 0
5949 -4353 4916 0
-5950 -5948 0
-5950 -5949 0
5950 5948 5949 0
-5945 -4352 0
-5945 4915 0
5945 4352 -4915 0
-5946 4352 0
-5946 -4915 0
5946 -4352 4915 0
-5947 -5945 0
-5947 -5946 0
5947 5945 5946 0
-5942 -4351 0
-5942 4914 0
5942 4351 -4914 0
-5943 4351 0
-5943 -4914 0
5943 -4351 4914 0
-5944 -5942 0
-5944 -5943 0
5944 5942 5943 0
-5939 -4350 0
-5939 4913 0
5939 4350 -4913 0
-5940 4350 0
-5940 -4913 0
5940 -4350 4913 0
-5941 -5939 0
-5941 -5940 0
5941 5939 5940 0
-5936 -4349 0
-5936 4912 0
5936 4349 -4912 0
-5937 4349 0
-5937 -4912 0
5937 -4349 4912 0
-5938 -5936 0
-5938 -5937 0
5938 5936 5937 0
-5933 -4348 0
-5933 4911 0
5933 4348 -4911 0
-5934 4348 0
-5934 -4911 0
5934 -4348 4911 0
-5935 -5933 0
-5935 -5934 0
5935 5933 5934 0
-5930 -4347 0
-5930 4910 0
5930 4347 -4910 0
-5931 4347 0
-5931 -4910 0
5931 -4347 4910 0
-5932 -5930 0
-5932 -5931 0
5932 5930 5931 0
-5927 -4346 0
-5927 4909 0
5927 4346 -4909 0
-5928 4346 0
-5928 -4909 0
5928 -4346 4909 0
-5929 -5927 0
-5929 -5928 0
5929 5927 5928 0
-5924 -4345 0
-5924 4908 0
5924 4345 -4908 0
-5925 4345 0
-5925 -4908 0
5925 -4345 4908 0
-5926 -5924 0
-5926 -5925 0
5926 5924 5925 0
-5921 -4344 0
-5921 4907 0
5921 4344 -4907 0
-5922 4344 0
-5922 -4907 0
5922 -4344 4907 0
-5923 -5921 0
-5923 -5922 0
5923 5921 5922 0
-5918 -4343 0
-5918 4906 0
5918 4343 -4906 0
-5919 4343 0
-5919 -4906 0
5919 -4343 4906 0
-5920 -5918 0
-5920 -5919 0
5920 5918 5919 0
-5915 -4342 0
-5915 4905 0
5915 4342 -4905 0
-5916 4342 0
-5916 -4905 0
5916 -4342 4905 0
-5917 -5915 0
-5917 -5916 0
5917 5915 5916 0
-5912 -4341 0
-5912 4904 0
5912 4341 -4904 0
-5913 4341 0
-5913 -4904 0
5913 -4341 4904 0
-5914 -5912 0
-5914 -5913 0
5914 5912 5913 0
-5909 -4340 0
-5909 4903 0
5909 4340 -4903 0
-5910 4340 0
-5910 -4903 0
5910 -4340 4903 0
-5911 -5909 0
-5911 -5910 0
5911 5909 5910 0
-5906 -4339 0
-5906 4902 0
5906 4339 -4902 0
-5907 4339 0
-5907 -4902 0
5907 -4339 4902 0
-5908 -5906 0
-5908 -5907 0
5908 5906 5907 0
-5903 -4338 0
-5903 4901 0
5903 4338 -4901 0
-5904 4338 0
-5904 -4901 0
5904 -4338 4901 0
-5905 -5903 0
-5905 -5904 0
5905 5903 5904 0
-5900 -4337 0
-5900 4900 0
5900 4337 -4900 0
-5901 4337 0
-5901 -4900 0
5901 -4337 4900 0
-5902 -5900 0
-5902 -5901 0
5902 5900 5901 0
-5897 -4336 0
-5897 4899 0
5897 4336 -4899 0
-5898 4336 0
-5898 -4899 0
5898 -4336 4899 0
-5899 -5897 0
-5899 -5898 0
5899 5897 5898 0
-5894 -4335 0
-5894 4898 0
5894 4335 -4898 0
-5895 4335 0
-5895 -4898 0
5895 -4335 4898 0
-5896 -5894 0
-5896 -5895 0
5896 5894 5895 0
-5891 -4334 0
-5891 4897 0
5891 4334 -4897 0
-5892 4334 0
-5892 -4897 0
5892 -4334 4897 0
-5893 -5891 0
-5893 -5892 0
5893 5891 5892 0
-5888 -4333 0
-5888 4896 0
5888 4333 -4896 0
-5889 4333 0
-5889 -4896 0
5889 -4333 4896 0
-5890 -5888 0
-5890 -5889 0
5890 5888 5889 0
-5885 -4332 0
-5885 4895 0
5885 4332 -4895 0
-5886 4332 0
-5886 -4895 0
5886 -4332 4895 0
-5887 -5885 0
-5887 -5886 0
5887 5885 5886 0
-5882 -4331 0
-5882 4894 0
5882 4331 -4894 0
-5883 4331 0
-5883 -4894 0
5883 -4331 4894 0
-5884 -5882 0
-5884 -5883 0
5884 5882 5883 0
-5879 -4330 0
-5879 4893 0
5879 4330 -4893 0
-5880 4330 0
-5880 -4893 0
5880 -4330 4893 0
-5881 -5879 0
-5881 -5880 0
5881 5879 5880 0
-5876 -4329 0
-5876 4892 0
5876 4329 -4892 0
-5877 4329 0
-5877 -4892 0
5877 -4329 4892 0
-5878 -5876 0
-5878 -5877 0
5878 5876 5877 0
-5873 -4328 0
-5873 4891 0
5873 4328 -4891 0
-5874 4328 0
-5874 -4891 0
5874 -4328 4891 0
-5875 -5873 0
-5875 -5874 0
5875 5873 5874 0
-5870 -4327 0
-5870 4890 0
5870 4327 -4890 0
-5871 4327 0
-5871 -4890 0
5871 -4327 4890 0
-5872 -5870 0
-5872 -5871 0
5872 5870 5871 0
-5867 -4326 0
-5867 4889 0
5867 4326 -4889 0
-5868 4326 0
-5868 -4889 0
5868 -4326 4889 0
-5869 -5867 0
-5869 -5868 0
5869 5867 5868 0
-5864 -4325 0
-5864 4888 0
5864 4325 -4888 0
-5865 4325 0
-5865 -4888 0
5865 -4325 4888 0
-5866 -5864 0
-5866 -5865 0
5866 5864 5865 0
-5861 -4324 0
-5861 4887 0
5861 4324 -4887 0
-5862 4324 0
-5862 -4887 0
5862 -4324 4887 0
-5863 -5861 0
-5863 -5862 0
5863 5861 5862 0
-5858 -4323 0
-5858 4886 0
5858 4323 -4886 0
-5859 4323 0
-5859 -4886 0
5859 -4323 4886 0
-5860 -5858 0
-5860 -5859 0
5860 5858 5859 0
-5855 -4322 0
-5855 4885 0
5855 4322 -4885 0
-5856 4322 0
-5856 -4885 0
5856 -4322 4885 0
-5857 -5855 0
-5857 -5856 0
5857 5855 5856 0
-5852 -4321 0
-5852 4884 0
5852 4321 -4884 0
-5853 4321 0
-5853 -4884 0
5853 -4321 4884 0
-5854 -5852 0
-5854 -5853 0
5854 5852 5853 0
-5849 -4320 0
-5849 4883 0
5849 4320 -4883 0
-5850 4320 0
-5850 -4883 0
5850 -4320 4883 0
-5851 -5849 0
-5851 -5850 0
5851 5849 5850 0
-5846 -4319 0
-5846 4882 0
5846 4319 -4882 0
-5847 4319 0
-5847 -4882 0
5847 -4319 4882 0
-5848 -5846 0
-5848 -5847 0
5848 5846 5847 0
-5843 -4318 0
-5843 4881 0
5843 4318 -4881 0
-5844 4318 0
-5844 -4881 0
5844 -4318 4881 0
-5845 -5843 0
-5845 -5844 0
5845 5843 5844 0
-5840 -4317 0
-5840 4880 0
5840 4317 -4880 0
-5841 4317 0
-5841 -4880 0
5841 -4317 4880 0
-5842 -5840 0
-5842 -5841 0
5842 5840 5841 0
-5837 -4316 0
-5837 4879 0
5837 4316 -4879 0
-5838 4316 0
-5838 -4879 0
5838 -4316 4879 0
-5839 -5837 0
-5839 -5838 0
5839 5837 5838 0
-5834 -4315 0
-5834 4878 0
5834 4315 -4878 0
-5835 4315 0
-5835 -4878 0
5835 -4315 4878 0
-5836 -5834 0
-5836 -5835 0
5836 5834 5835 0
-5831 -4314 0
-5831 4877 0
5831 4314 -4877 0
-5832 4314 0
-5832 -4877 0
5832 -4314 4877 0
-5833 -5831 0
-5833 -5832 0
5833 5831 5832 0
-5828 -4313 0
-5828 4876 0
5828 4313 -4876 0
-5829 4313 0
-5829 -4876 0
5829 -4313 4876 0
-5830 -5828 0
-5830 -5829 0
5830 5828 5829 0
-5825 -4312 0
-5825 4875 0
5825 4312 -4875 0
-5826 4312 0
-5826 -4875 0
5826 -4312 4875 0
-5827 -5825 0
-5827 -5826 0
5827 5825 5826 0
-5822 -4311 0
-5822 4874 0
5822 4311 -4874 0
-5823 4311 0
-5823 -4874 0
5823 -4311 4874 0
-5824 -5822 0
-5824 -5823 0
5824 5822 5823 0
-5816 -4309 0
-5816 4872 0
5816 4309 -4872 0
-5817 4309 0
-5817 -4872 0
5817 -4309 4872 0
-5818 -5816 0
-5818 -5817 0
5818 5816 5817 0
-5819 -4310 0
-5819 4873 0
5819 4310 -4873 0
-5820 4310 0
-5820 -4873 0
5820 -4310 4873 0
-5821 -5819 0
-5821 -5820 0
5821 5819 5820 0
-6005 5818 0
-6005 5821 0
6005 -5818 -5821 0
-6006 5824 0
-6006 6005 0
6006 -5824 -6005 0
-6007 5827 0
-6007 6006 0
6007 -5827 -6006 0
-6008 5830 0
-6008 6007 0
6008 -5830 -6007 0
-6009 5833 0
-6009 6008 0
6009 -5833 -6008 0
-6010 5836 0
-6010 6009 0
6010 -5836 -6009 0
-6011 5839 0
-6011 6010 0
6011 -5839 -6010 0
-6012 5842 0
-6012 6011 0
6012 -5842 -6011 0
-6013 5845 0
-6013 6012 0
6013 -5845 -6012 0
-6014 5848 0
-6014 6013 0
6014 -5848 -6013 0
-6015 5851 0
-6015 6014 0
6015 -5851 -6014 0
-6016 5854 0
-6016 6015 0
6016 -5854 -6015 0
-6017 5857 0
-6017 6016 0
6017 -5857 -6016 0
-6018 5860 0
-6018 6017 0
6018 -5860 -6017 0
-6019 5863 0
-6019 6018 0
6019 -5863 -6018 0
-6020 5866 0
-6020 6019 0
6020 -5866 -6019 0
-6021 5869 0
-6021 6020 0
6021 -5869 -6020 0
-6022 5872 0
-6022 6021 0
6022 -5872 -6021 0
-6023 5875 0
-6023 6022 0
6023 -5875 -6022 0
-6024 5878 0
-6024 6023 0
6024 -5878 -6023 0
-6025 5881 0
-6025 6024 0
6025 -5881 -6024 0
-6026 5884 0
-6026 6025 0
6026 -5884 -6025 0
-6027 5887 0
-6027 6026 0
6027 -5887 -6026 0
-6028 5890 0
-6028 6027 0
6028 -5890 -6027 0
-6029 5893 0
-6029 6028 0
6029 -5893 -6028 0
-6030 5896 0
-6030 6029 0
6030 -5896 -6029 0
-6031 5899 0
-6031 6030 0
6031 -5899 -6030 0
-6032 5902 0
-6032 6031 0
6032 -5902 -6031 0
-6033 5905 0
-6033 6032 0
6033 -5905 -6032 0
-6034 5908 0
-6034 6033 0
6034 -5908 -6033 0
-6035 5911 0
-6035 6034 0
6035 -5911 -6034 0
-6036 5914 0
-6036 6035 0
6036 -5914 -6035 0
-6037 5917 0
-6037 6036 0
6037 -5917 -6036 0
-6038 5920 0
-6038 6037 0
6038 -5920 -6037 0
-6039 5923 0
-6039 6038 0
6039 -5923 -6038 0
-6040 5926 0
-6040 6039 0
6040 -5926 -6039 0
-6041 5929 0
-6041 6040 0
6041 -5929 -6040 0
-6042 5932 0
-6042 6041 0
6042 -5932 -6041 0
-6043 5935 0
-6043 6042 0
6043 -5935 -6042 0
-6044 5938 0
-6044 6043 0
6044 -5938 -6043 0
-6045 5941 0
-6045 6044 0
6045 -5941 -6044 0
-6046 5944 0
-6046 6045 0
6046 -5944 -6045 0
-6047 5947 0
-6047 6046 0
6047 -5947 -6046 0
-6048 5950 0
-6048 6047 0
6048 -5950 -6047 0
-6049 5953 0
-6049 6048 0
6049 -5953 -6048 0
-6050 5956 0
-6050 6049 0
6050 -5956 -6049 0
-6051 5959 0
-6051 6050 0
6051 -5959 -6050 0
-6052 5962 0
-6052 6051 0
6052 -5962 -6051 0
-6053 5965 0
-6053 6052 0
6053 -5965 -6052 0
-6054 5968 0
-6054 6053 0
6054 -5968 -6053 0
-6055 5971 0
-6055 6054 0
6055 -5971 -6054 0
-6056 5974 0
-6056 6055 0
6056 -5974 -6055 0
-6057 5977 0
-6057 6056 0
6057 -5977 -6056 0
-6058 5980 0
-6058 6057 0
6058 -5980 -6057 0
-6059 5983 0
-6059 6058 0
6059 -5983 -6058 0
-6060 5986 0
-6060 6059 0
6060 -5986 -6059 0
-6061 5989 0
-6061 6060 0
6061 -5989 -6060 0
-6062 5992 0
-6062 6061 0
6062 -5992 -6061 0
-6063 5995 0
-6063 6062 0
6063 -5995 -6062 0
-6064 5998 0
-6064 6063 0
6064 -5998 -6063 0
-6065 6001 0
-6065 6064 0
6065 -6001 -6064 0
-6066 6004 0
-6066 6065 0
6066 -6004 -6065 0
-6067 -4935 0
-6067 6066 0
6067 4935 -6066 0
-6068 -4266 0
-6068 -6067 0
6068 4266 6067 0
-6069 5815 0
-6069 -6068 0
6069 -5815 6068 0
6070 -16830 0
-6070 16830 0
-6071 -3563 0
-6071 6070 0
6071 3563 -6070 0
-6072 3563 0
-6072 -6070 0
6072 -3563 6070 0
-6073 -6071 0
-6073 -6072 0
6073 6071 6072 0
-6074 2451 0
-6074 -6073 0
6074 -2451 6073 0
-6075 6069 0
-6075 -6074 0
6075 -6069 6074 0
-6076 -2495 0
-6076 6070 0
6076 2495 -6070 0
-6077 2495 0
-6077 -6070 0
6077 -2495 6070 0
-6078 -6076 0
-6078 -6077 0
6078 6076 6077 0
-6079 -2451 0
-6079 -6078 0
6079 2451 6078 0
-6080 6075 0
-6080 -6079 0
6080 -6075 6079 0
6081 -16831 0
-6081 16831 0
-6082 -5375 0
-6082 6081 0
6082 5375 -6081 0
-6083 5375 0
-6083 -6081 0
6083 -5375 6081 0
-6084 -6082 0
-6084 -6083 0
6084 6082 6083 0
-6085 4266 0
-6085 -6084 0
6085 -4266 6084 0
-6086 6080 0
-6086 -6085 0
6086 -6080 6085 0
-6087 -6070 0
-6087 6081 0
6087 6070 -6081 0
-6088 6070 0
-6088 -6081 0
6088 -6070 6081 0
-6089 -6087 0
-6089 -6088 0
6089 6087 6088 0
-6090 -4266 0
-6090 -6089 0
6090 4266 6089 0
-6091 6086 0
-6091 -6090 0
6091 -6086 6090 0
6101 -16841 0
-6101 16841 0
6100 -16840 0
-6100 16840 0
6099 -16839 0
-6099 16839 0
6098 -16838 0
-6098 16838 0
6097 -16837 0
-6097 16837 0
6096 -16836 0
-6096 16836 0
6095 -16835 0
-6095 16835 0
6094 -16834 0
-6094 16834 0
6092 -16832 0
-6092 16832 0
6093 -16833 0
-6093 16833 0
-6102 6092 0
-6102 -6093 0
6102 -6092 6093 0
-6103 -6094 0
-6103 6102 0
6103 6094 -6102 0
-6104 -6095 0
-6104 6103 0
6104 6095 -6103 0
-6105 -6096 0
-6105 6104 0
6105 6096 -6104 0
-6106 -6097 0
-6106 6105 0
6106 6097 -6105 0
-6107 -6098 0
-6107 6106 0
6107 6098 -6106 0
-6108 -6099 0
-6108 6107 0
6108 6099 -6107 0
-6109 -6100 0
-6109 6108 0
6109 6100 -6108 0
-6110 -6101 0
-6110 6109 0
6110 6101 -6109 0
-6111 6081 0
-6111 -6110 0
6111 -6081 6110 0
-6112 6091 0
-6112 -6111 0
6112 -6091 6111 0
-6113 -6092 0
-6113 -6093 0
6113 6092 6093 0
-6114 -6094 0
-6114 6113 0
6114 6094 -6113 0
-6115 -6095 0
-6115 6114 0
6115 6095 -6114 0
-6116 -6096 0
-6116 6115 0
6116 6096 -6115 0
-6117 -6097 0
-6117 6116 0
6117 6097 -6116 0
-6118 -6098 0
-6118 6117 0
6118 6098 -6117 0
-6119 -6099 0
-6119 6118 0
6119 6099 -6118 0
-6120 -6100 0
-6120 6119 0
6120 6100 -6119 0
-6121 -6101 0
-6121 6120 0
6121 6101 -6120 0
-6122 -6081 0
-6122 -6121 0
6122 6081 6121 0
-6123 6112 0
-6123 -6122 0
6123 -6112 6122 0
6186 -16904 0
-6186 16904 0
6185 -16903 0
-6185 16903 0
-6370 -5561 0
-6370 6185 0
6370 5561 -6185 0
-6371 5561 0
-6371 -6185 0
6371 -5561 6185 0
-6372 -6370 0
-6372 -6371 0
6372 6370 6371 0
6184 -16902 0
-6184 16902 0
-6367 -5558 0
-6367 6184 0
6367 5558 -6184 0
-6368 5558 0
-6368 -6184 0
6368 -5558 6184 0
-6369 -6367 0
-6369 -6368 0
6369 6367 6368 0
6183 -16901 0
-6183 16901 0
-6364 -5555 0
-6364 6183 0
6364 5555 -6183 0
-6365 5555 0
-6365 -6183 0
6365 -5555 6183 0
-6366 -6364 0
-6366 -6365 0
6366 6364 6365 0
6182 -16900 0
-6182 16900 0
-6361 -5552 0
-6361 6182 0
6361 5552 -6182 0
-6362 5552 0
-6362 -6182 0
6362 -5552 6182 0
-6363 -6361 0
-6363 -6362 0
6363 6361 6362 0
6181 -16899 0
-6181 16899 0
-6358 -5549 0
-6358 6181 0
6358 5549 -6181 0
-6359 5549 0
-6359 -6181 0
6359 -5549 6181 0
-6360 -6358 0
-6360 -6359 0
6360 6358 6359 0
6180 -16898 0
-6180 16898 0
-6355 -5546 0
-6355 6180 0
6355 5546 -6180 0
-6356 5546 0
-6356 -6180 0
6356 -5546 6180 0
-6357 -6355 0
-6357 -6356 0
6357 6355 6356 0
6179 -16897 0
-6179 16897 0
-6352 -5543 0
-6352 6179 0
6352 5543 -6179 0
-6353 5543 0
-6353 -6179 0
6353 -5543 6179 0
-6354 -6352 0
-6354 -6353 0
6354 6352 6353 0
6178 -16896 0
-6178 16896 0
-6349 -5540 0
-6349 6178 0
6349 5540 -6178 0
-6350 5540 0
-6350 -6178 0
6350 -5540 6178 0
-6351 -6349 0
-6351 -6350 0
6351 6349 6350 0
6177 -16895 0
-6177 16895 0
-6346 -5537 0
-6346 6177 0
6346 5537 -6177 0
-6347 5537 0
-6347 -6177 0
6347 -5537 6177 0
-6348 -6346 0
-6348 -6347 0
6348 6346 6347 0
6176 -16894 0
-6176 16894 0
-6343 -5534 0
-6343 6176 0
6343 5534 -6176 0
-6344 5534 0
-6344 -6176 0
6344 -5534 6176 0
-6345 -6343 0
-6345 -6344 0
6345 6343 6344 0
6175 -16893 0
-6175 16893 0
-6340 -5531 0
-6340 6175 0
6340 5531 -6175 0
-6341 5531 0
-6341 -6175 0
6341 -5531 6175 0
-6342 -6340 0
-6342 -6341 0
6342 6340 6341 0
6174 -16892 0
-6174 16892 0
-6337 -5528 0
-6337 6174 0
6337 5528 -6174 0
-6338 5528 0
-6338 -6174 0
6338 -5528 6174 0
-6339 -6337 0
-6339 -6338 0
6339 6337 6338 0
6173 -16891 0
-6173 16891 0
-6334 -5525 0
-6334 6173 0
6334 5525 -6173 0
-6335 5525 0
-6335 -6173 0
6335 -5525 6173 0
-6336 -6334 0
-6336 -6335 0
6336 6334 6335 0
6172 -16890 0
-6172 16890 0
-6331 -5522 0
-6331 6172 0
6331 5522 -6172 0
-6332 5522 0
-6332 -6172 0
6332 -5522 6172 0
-6333 -6331 0
-6333 -6332 0
6333 6331 6332 0
6171 -16889 0
-6171 16889 0
-6328 -5519 0
-6328 6171 0
6328 5519 -6171 0
-6329 5519 0
-6329 -6171 0
6329 -5519 6171 0
-6330 -6328 0
-6330 -6329 0
6330 6328 6329 0
6170 -16888 0
-6170 16888 0
-6325 -5516 0
-6325 6170 0
6325 5516 -6170 0
-6326 5516 0
-6326 -6170 0
6326 -5516 6170 0
-6327 -6325 0
-6327 -6326 0
6327 6325 6326 0
6169 -16887 0
-6169 16887 0
-6322 -5513 0
-6322 6169 0
6322 5513 -6169 0
-6323 5513 0
-6323 -6169 0
6323 -5513 6169 0
-6324 -6322 0
-6324 -6323 0
6324 6322 6323 0
6168 -16886 0
-6168 16886 0
-6319 -5510 0
-6319 6168 0
6319 5510 -6168 0
-6320 5510 0
-6320 -6168 0
6320 -5510 6168 0
-6321 -6319 0
-6321 -6320 0
6321 6319 6320 0
6167 -16885 0
-6167 16885 0
-6316 -5507 0
-6316 6167 0
6316 5507 -6167 0
-6317 5507 0
-6317 -6167 0
6317 -5507 6167 0
-6318 -6316 0
-6318 -6317 0
6318 6316 6317 0
6166 -16884 0
-6166 16884 0
-6313 -5504 0
-6313 6166 0
6313 5504 -6166 0
-6314 5504 0
-6314 -6166 0
6314 -5504 6166 0
-6315 -6313 0
-6315 -6314 0
6315 6313 6314 0
6165 -16883 0
-6165 16883 0
-6310 -5501 0
-6310 6165 0
6310 5501 -6165 0
-6311 5501 0
-6311 -6165 0
6311 -5501 6165 0
-6312 -6310 0
-6312 -6311 0
6312 6310 6311 0
6164 -16882 0
-6164 16882 0
-6307 -5498 0
-6307 6164 0
6307 5498 -6164 0
-6308 5498 0
-6308 -6164 0
6308 -5498 6164 0
-6309 -6307 0
-6309 -6308 0
6309 6307 6308 0
6163 -16881 0
-6163 16881 0
-6304 -5495 0
-6304 6163 0
6304 5495 -6163 0
-6305 5495 0
-6305 -6163 0
6305 -5495 6163 0
-6306 -6304 0
-6306 -6305 0
6306 6304 6305 0
6162 -16880 0
-6162 16880 0
-6301 -5492 0
-6301 6162 0
6301 5492 -6162 0
-6302 5492 0
-6302 -6162 0
6302 -5492 6162 0
-6303 -6301 0
-6303 -6302 0
6303 6301 6302 0
6161 -16879 0
-6161 16879 0
-6298 -5489 0
-6298 6161 0
6298 5489 -6161 0
-6299 5489 0
-6299 -6161 0
6299 -5489 6161 0
-6300 -6298 0
-6300 -6299 0
6300 6298 6299 0
6160 -16878 0
-6160 16878 0
-6295 -5486 0
-6295 6160 0
6295 5486 -6160 0
-6296 5486 0
-6296 -6160 0
6296 -5486 6160 0
-6297 -6295 0
-6297 -6296 0
6297 6295 6296 0
6159 -16877 0
-6159 16877 0
-6292 -5483 0
-6292 6159 0
6292 5483 -6159 0
-6293 5483 0
-6293 -6159 0
6293 -5483 6159 0
-6294 -6292 0
-6294 -6293 0
6294 6292 6293 0
6158 -16876 0
-6158 16876 0
-6289 -5480 0
-6289 6158 0
6289 5480 -6158 0
-6290 5480 0
-6290 -6158 0
6290 -5480 6158 0
-6291 -6289 0
-6291 -6290 0
6291 6289 6290 0
6157 -16875 0
-6157 16875 0
-6286 -5477 0
-6286 6157 0
6286 5477 -6157 0
-6287 5477 0
-6287 -6157 0
6287 -5477 6157 0
-6288 -6286 0
-6288 -6287 0
6288 6286 6287 0
6156 -16874 0
-6156 16874 0
-6283 -5474 0
-6283 6156 0
6283 5474 -6156 0
-6284 5474 0
-6284 -6156 0
6284 -5474 6156 0
-6285 -6283 0
-6285 -6284 0
6285 6283 6284 0
6155 -16873 0
-6155 16873 0
-6280 -5471 0
-6280 6155 0
6280 5471 -6155 0
-6281 5471 0
-6281 -6155 0
6281 -5471 6155 0
-6282 -6280 0
-6282 -6281 0
6282 6280 6281 0
6154 -16872 0
-6154 16872 0
-6277 -5468 0
-6277 6154 0
6277 5468 -6154 0
-6278 5468 0
-6278 -6154 0
6278 -5468 6154 0
-6279 -6277 0
-6279 -6278 0
6279 6277 6278 0
6153 -16871 0
-6153 16871 0
-6274 -5465 0
-6274 6153 0
6274 5465 -6153 0
-6275 5465 0
-6275 -6153 0
6275 -5465 6153 0
-6276 -6274 0
-6276 -6275 0
6276 6274 6275 0
6152 -16870 0
-6152 16870 0
-6271 -5462 0
-6271 6152 0
6271 5462 -6152 0
-6272 5462 0
-6272 -6152 0
6272 -5462 6152 0
-6273 -6271 0
-6273 -6272 0
6273 6271 6272 0
6151 -16869 0
-6151 16869 0
-6268 -5459 0
-6268 6151 0
6268 5459 -6151 0
-6269 5459 0
-6269 -6151 0
6269 -5459 6151 0
-6270 -6268 0
-6270 -6269 0
6270 6268 6269 0
6150 -16868 0
-6150 16868 0
-6265 -5456 0
-6265 6150 0
6265 5456 -6150 0
-6266 5456 0
-6266 -6150 0
6266 -5456 6150 0
-6267 -6265 0
-6267 -6266 0
6267 6265 6266 0
6149 -16867 0
-6149 16867 0
-6262 -5453 0
-6262 6149 0
6262 5453 -6149 0
-6263 5453 0
-6263 -6149 0
6263 -5453 6149 0
-6264 -6262 0
-6264 -6263 0
6264 6262 6263 0
6148 -16866 0
-6148 16866 0
-6259 -5450 0
-6259 6148 0
6259 5450 -6148 0
-6260 5450 0
-6260 -6148 0
6260 -5450 6148 0
-6261 -6259 0
-6261 -6260 0
6261 6259 6260 0
6147 -16865 0
-6147 16865 0
-6256 -5447 0
-6256 6147 0
6256 5447 -6147 0
-6257 5447 0
-6257 -6147 0
6257 -5447 6147 0
-6258 -6256 0
-6258 -6257 0
6258 6256 6257 0
6146 -16864 0
-6146 16864 0
-6253 -5444 0
-6253 6146 0
6253 5444 -6146 0
-6254 5444 0
-6254 -6146 0
6254 -5444 6146 0
-6255 -6253 0
-6255 -6254 0
6255 6253 6254 0
6145 -16863 0
-6145 16863 0
-6250 -5441 0
-6250 6145 0
6250 5441 -6145 0
-6251 5441 0
-6251 -6145 0
6251 -5441 6145 0
-6252 -6250 0
-6252 -6251 0
6252 6250 6251 0
6144 -16862 0
-6144 16862 0
-6247 -5438 0
-6247 6144 0
6247 5438 -6144 0
-6248 5438 0
-6248 -6144 0
6248 -5438 6144 0
-6249 -6247 0
-6249 -6248 0
6249 6247 6248 0
6143 -16861 0
-6143 16861 0
-6244 -5435 0
-6244 6143 0
6244 5435 -6143 0
-6245 5435 0
-6245 -6143 0
6245 -5435 6143 0
-6246 -6244 0
-6246 -6245 0
6246 6244 6245 0
6142 -16860 0
-6142 16860 0
-6241 -5432 0
-6241 6142 0
6241 5432 -6142 0
-6242 5432 0
-6242 -6142 0
6242 -5432 6142 0
-6243 -6241 0
-6243 -6242 0
6243 6241 6242 0
6141 -16859 0
-6141 16859 0
-6238 -5429 0
-6238 6141 0
6238 5429 -6141 0
-6239 5429 0
-6239 -6141 0
6239 -5429 6141 0
-6240 -6238 0
-6240 -6239 0
6240 6238 6239 0
6140 -16858 0
-6140 16858 0
-6235 -5426 0
-6235 6140 0
6235 5426 -6140 0
-6236 5426 0
-6236 -6140 0
6236 -5426 6140 0
-6237 -6235 0
-6237 -6236 0
6237 6235 6236 0
6139 -16857 0
-6139 16857 0
-6232 -5423 0
-6232 6139 0
6232 5423 -6139 0
-6233 5423 0
-6233 -6139 0
6233 -5423 6139 0
-6234 -6232 0
-6234 -6233 0
6234 6232 6233 0
6138 -16856 0
-6138 16856 0
-6229 -5420 0
-6229 6138 0
6229 5420 -6138 0
-6230 5420 0
-6230 -6138 0
6230 -5420 6138 0
-6231 -6229 0
-6231 -6230 0
6231 6229 6230 0
6137 -16855 0
-6137 16855 0
-6226 -5417 0
-6226 6137 0
6226 5417 -6137 0
-6227 5417 0
-6227 -6137 0
6227 -5417 6137 0
-6228 -6226 0
-6228 -6227 0
6228 6226 6227 0
6136 -16854 0
-6136 16854 0
-6223 -5414 0
-6223 6136 0
6223 5414 -6136 0
-6224 5414 0
-6224 -6136 0
6224 -5414 6136 0
-6225 -6223 0
-6225 -6224 0
6225 6223 6224 0
6135 -16853 0
-6135 16853 0
-6220 -5411 0
-6220 6135 0
6220 5411 -6135 0
-6221 5411 0
-6221 -6135 0
6221 -5411 6135 0
-6222 -6220 0
-6222 -6221 0
6222 6220 6221 0
6134 -16852 0
-6134 16852 0
-6217 -5408 0
-6217 6134 0
6217 5408 -6134 0
-6218 5408 0
-6218 -6134 0
6218 -5408 6134 0
-6219 -6217 0
-6219 -6218 0
6219 6217 6218 0
6133 -16851 0
-6133 16851 0
-6214 -5405 0
-6214 6133 0
6214 5405 -6133 0
-6215 5405 0
-6215 -6133 0
6215 -5405 6133 0
-6216 -6214 0
-6216 -6215 0
6216 6214 6215 0
6132 -16850 0
-6132 16850 0
-6211 -5402 0
-6211 6132 0
6211 5402 -6132 0
-6212 5402 0
-6212 -6132 0
6212 -5402 6132 0
-6213 -6211 0
-6213 -6212 0
6213 6211 6212 0
6131 -16849 0
-6131 16849 0
-6208 -5399 0
-6208 6131 0
6208 5399 -6131 0
-6209 5399 0
-6209 -6131 0
6209 -5399 6131 0
-6210 -6208 0
-6210 -6209 0
6210 6208 6209 0
6130 -16848 0
-6130 16848 0
-6205 -5396 0
-6205 6130 0
6205 5396 -6130 0
-6206 5396 0
-6206 -6130 0
6206 -5396 6130 0
-6207 -6205 0
-6207 -6206 0
6207 6205 6206 0
6129 -16847 0
-6129 16847 0
-6202 -5393 0
-6202 6129 0
6202 5393 -6129 0
-6203 5393 0
-6203 -6129 0
6203 -5393 6129 0
-6204 -6202 0
-6204 -6203 0
6204 6202 6203 0
6128 -16846 0
-6128 16846 0
-6199 -5390 0
-6199 6128 0
6199 5390 -6128 0
-6200 5390 0
-6200 -6128 0
6200 -5390 6128 0
-6201 -6199 0
-6201 -6200 0
6201 6199 6200 0
6127 -16845 0
-6127 16845 0
-6196 -5387 0
-6196 6127 0
6196 5387 -6127 0
-6197 5387 0
-6197 -6127 0
6197 -5387 6127 0
-6198 -6196 0
-6198 -6197 0
6198 6196 6197 0
6126 -16844 0
-6126 16844 0
-6193 -5384 0
-6193 6126 0
6193 5384 -6126 0
-6194 5384 0
-6194 -6126 0
6194 -5384 6126 0
-6195 -6193 0
-6195 -6194 0
6195 6193 6194 0
6124 -16842 0
-6124 16842 0
-6187 -5378 0
-6187 6124 0
6187 5378 -6124 0
-6188 5378 0
-6188 -6124 0
6188 -5378 6124 0
-6189 -6187 0
-6189 -6188 0
6189 6187 6188 0
6125 -16843 0
-6125 16843 0
-6190 -5381 0
-6190 6125 0
6190 5381 -6125 0
-6191 5381 0
-6191 -6125 0
6191 -5381 6125 0
-6192 -6190 0
-6192 -6191 0
6192 6190 6191 0
-6373 6189 0
-6373 6192 0
6373 -6189 -6192 0
-6374 6195 0
-6374 6373 0
6374 -6195 -6373 0
-6375 6198 0
-6375 6374 0
6375 -6198 -6374 0
-6376 6201 0
-6376 6375 0
6376 -6201 -6375 0
-6377 6204 0
-6377 6376 0
6377 -6204 -6376 0
-6378 6207 0
-6378 6377 0
6378 -6207 -6377 0
-6379 6210 0
-6379 6378 0
6379 -6210 -6378 0
-6380 6213 0
-6380 6379 0
6380 -6213 -6379 0
-6381 6216 0
-6381 6380 0
6381 -6216 -6380 0
-6382 6219 0
-6382 6381 0
6382 -6219 -6381 0
-6383 6222 0
-6383 6382 0
6383 -6222 -6382 0
-6384 6225 0
-6384 6383 0
6384 -6225 -6383 0
-6385 6228 0
-6385 6384 0
6385 -6228 -6384 0
-6386 6231 0
-6386 6385 0
6386 -6231 -6385 0
-6387 6234 0
-6387 6386 0
6387 -6234 -6386 0
-6388 6237 0
-6388 6387 0
6388 -6237 -6387 0
-6389 6240 0
-6389 6388 0
6389 -6240 -6388 0
-6390 6243 0
-6390 6389 0
6390 -6243 -6389 0
-6391 6246 0
-6391 6390 0
6391 -6246 -6390 0
-6392 6249 0
-6392 6391 0
6392 -6249 -6391 0
-6393 6252 0
-6393 6392 0
6393 -6252 -6392 0
-6394 6255 0
-6394 6393 0
6394 -6255 -6393 0
-6395 6258 0
-6395 6394 0
6395 -6258 -6394 0
-6396 6261 0
-6396 6395 0
6396 -6261 -6395 0
-6397 6264 0
-6397 6396 0
6397 -6264 -6396 0
-6398 6267 0
-6398 6397 0
6398 -6267 -6397 0
-6399 6270 0
-6399 6398 0
6399 -6270 -6398 0
-6400 6273 0
-6400 6399 0
6400 -6273 -6399 0
-6401 6276 0
-6401 6400 0
6401 -6276 -6400 0
-6402 6279 0
-6402 6401 0
6402 -6279 -6401 0
-6403 6282 0
-6403 6402 0
6403 -6282 -6402 0
-6404 6285 0
-6404 6403 0
6404 -6285 -6403 0
-6405 6288 0
-6405 6404 0
6405 -6288 -6404 0
-6406 6291 0
-6406 6405 0
6406 -6291 -6405 0
-6407 6294 0
-6407 6406 0
6407 -6294 -6406 0
-6408 6297 0
-6408 6407 0
6408 -6297 -6407 0
-6409 6300 0
-6409 6408 0
6409 -6300 -6408 0
-6410 6303 0
-6410 6409 0
6410 -6303 -6409 0
-6411 6306 0
-6411 6410 0
6411 -6306 -6410 0
-6412 6309 0
-6412 6411 0
6412 -6309 -6411 0
-6413 6312 0
-6413 6412 0
6413 -6312 -6412 0
-6414 6315 0
-6414 6413 0
6414 -6315 -6413 0
-6415 6318 0
-6415 6414 0
6415 -6318 -6414 0
-6416 6321 0
-6416 6415 0
6416 -6321 -6415 0
-6417 6324 0
-6417 6416 0
6417 -6324 -6416 0
-6418 6327 0
-6418 6417 0
6418 -6327 -6417 0
-6419 6330 0
-6419 6418 0
6419 -6330 -6418 0
-6420 6333 0
-6420 6419 0
6420 -6333 -6419 0
-6421 6336 0
-6421 6420 0
6421 -6336 -6420 0
-6422 6339 0
-6422 6421 0
6422 -6339 -6421 0
-6423 6342 0
-6423 6422 0
6423 -6342 -6422 0
-6424 6345 0
-6424 6423 0
6424 -6345 -6423 0
-6425 6348 0
-6425 6424 0
6425 -6348 -6424 0
-6426 6351 0
-6426 6425 0
6426 -6351 -6425 0
-6427 6354 0
-6427 6426 0
6427 -6354 -6426 0
-6428 6357 0
-6428 6427 0
6428 -6357 -6427 0
-6429 6360 0
-6429 6428 0
6429 -6360 -6428 0
-6430 6363 0
-6430 6429 0
6430 -6363 -6429 0
-6431 6366 0
-6431 6430 0
6431 -6366 -6430 0
-6432 6369 0
-6432 6431 0
6432 -6369 -6431 0
-6433 6372 0
-6433 6432 0
6433 -6372 -6432 0
-6434 -6186 0
-6434 6433 0
6434 6186 -6433 0
-6435 4266 0
-6435 -6434 0
6435 -4266 6434 0
-6436 6123 0
-6436 -6435 0
6436 -6123 6435 0
-6620 -4371 0
-6620 6185 0
6620 4371 -6185 0
-6621 4371 0
-6621 -6185 0
6621 -4371 6185 0
-6622 -6620 0
-6622 -6621 0
6622 6620 6621 0
-6617 -4370 0
-6617 6184 0
6617 4370 -6184 0
-6618 4370 0
-6618 -6184 0
6618 -4370 6184 0
-6619 -6617 0
-6619 -6618 0
6619 6617 6618 0
-6614 -4369 0
-6614 6183 0
6614 4369 -6183 0
-6615 4369 0
-6615 -6183 0
6615 -4369 6183 0
-6616 -6614 0
-6616 -6615 0
6616 6614 6615 0
-6611 -4368 0
-6611 6182 0
6611 4368 -6182 0
-6612 4368 0
-6612 -6182 0
6612 -4368 6182 0
-6613 -6611 0
-6613 -6612 0
6613 6611 6612 0
-6608 -4367 0
-6608 6181 0
6608 4367 -6181 0
-6609 4367 0
-6609 -6181 0
6609 -4367 6181 0
-6610 -6608 0
-6610 -6609 0
6610 6608 6609 0
-6605 -4366 0
-6605 6180 0
6605 4366 -6180 0
-6606 4366 0
-6606 -6180 0
6606 -4366 6180 0
-6607 -6605 0
-6607 -6606 0
6607 6605 6606 0
-6602 -4365 0
-6602 6179 0
6602 4365 -6179 0
-6603 4365 0
-6603 -6179 0
6603 -4365 6179 0
-6604 -6602 0
-6604 -6603 0
6604 6602 6603 0
-6599 -4364 0
-6599 6178 0
6599 4364 -6178 0
-6600 4364 0
-6600 -6178 0
6600 -4364 6178 0
-6601 -6599 0
-6601 -6600 0
6601 6599 6600 0
-6596 -4363 0
-6596 6177 0
6596 4363 -6177 0
-6597 4363 0
-6597 -6177 0
6597 -4363 6177 0
-6598 -6596 0
-6598 -6597 0
6598 6596 6597 0
-6593 -4362 0
-6593 6176 0
6593 4362 -6176 0
-6594 4362 0
-6594 -6176 0
6594 -4362 6176 0
-6595 -6593 0
-6595 -6594 0
6595 6593 6594 0
-6590 -4361 0
-6590 6175 0
6590 4361 -6175 0
-6591 4361 0
-6591 -6175 0
6591 -4361 6175 0
-6592 -6590 0
-6592 -6591 0
6592 6590 6591 0
-6587 -4360 0
-6587 6174 0
6587 4360 -6174 0
-6588 4360 0
-6588 -6174 0
6588 -4360 6174 0
-6589 -6587 0
-6589 -6588 0
6589 6587 6588 0
-6584 -4359 0
-6584 6173 0
6584 4359 -6173 0
-6585 4359 0
-6585 -6173 0
6585 -4359 6173 0
-6586 -6584 0
-6586 -6585 0
6586 6584 6585 0
-6581 -4358 0
-6581 6172 0
6581 4358 -6172 0
-6582 4358 0
-6582 -6172 0
6582 -4358 6172 0
-6583 -6581 0
-6583 -6582 0
6583 6581 6582 0
-6578 -4357 0
-6578 6171 0
6578 4357 -6171 0
-6579 4357 0
-6579 -6171 0
6579 -4357 6171 0
-6580 -6578 0
-6580 -6579 0
6580 6578 6579 0
-6575 -4356 0
-6575 6170 0
6575 4356 -6170 0
-6576 4356 0
-6576 -6170 0
6576 -4356 6170 0
-6577 -6575 0
-6577 -6576 0
6577 6575 6576 0
-6572 -4355 0
-6572 6169 0
6572 4355 -6169 0
-6573 4355 0
-6573 -6169 0
6573 -4355 6169 0
-6574 -6572 0
-6574 -6573 0
6574 6572 6573 0
-6569 -4354 0
-6569 6168 0
6569 4354 -6168 0
-6570 4354 0
-6570 -6168 0
6570 -4354 6168 0
-6571 -6569 0
-6571 -6570 0
6571 6569 6570 0
-6566 -4353 0
-6566 6167 0
6566 4353 -6167 0
-6567 4353 0
-6567 -6167 0
6567 -4353 6167 0
-6568 -6566 0
-6568 -6567 0
6568 6566 6567 0
-6563 -4352 0
-6563 6166 0
6563 4352 -6166 0
-6564 4352 0
-6564 -6166 0
6564 -4352 6166 0
-6565 -6563 0
-6565 -6564 0
6565 6563 6564 0
-6560 -4351 0
-6560 6165 0
6560 4351 -6165 0
-6561 4351 0
-6561 -6165 0
6561 -4351 6165 0
-6562 -6560 0
-6562 -6561 0
6562 6560 6561 0
-6557 -4350 0
-6557 6164 0
6557 4350 -6164 0
-6558 4350 0
-6558 -6164 0
6558 -4350 6164 0
-6559 -6557 0
-6559 -6558 0
6559 6557 6558 0
-6554 -4349 0
-6554 6163 0
6554 4349 -6163 0
-6555 4349 0
-6555 -6163 0
6555 -4349 6163 0
-6556 -6554 0
-6556 -6555 0
6556 6554 6555 0
-6551 -4348 0
-6551 6162 0
6551 4348 -6162 0
-6552 4348 0
-6552 -6162 0
6552 -4348 6162 0
-6553 -6551 0
-6553 -6552 0
6553 6551 6552 0
-6548 -4347 0
-6548 6161 0
6548 4347 -6161 0
-6549 4347 0
-6549 -6161 0
6549 -4347 6161 0
-6550 -6548 0
-6550 -6549 0
6550 6548 6549 0
-6545 -4346 0
-6545 6160 0
6545 4346 -6160 0
-6546 4346 0
-6546 -6160 0
6546 -4346 6160 0
-6547 -6545 0
-6547 -6546 0
6547 6545 6546 0
-6542 -4345 0
-6542 6159 0
6542 4345 -6159 0
-6543 4345 0
-6543 -6159 0
6543 -4345 6159 0
-6544 -6542 0
-6544 -6543 0
6544 6542 6543 0
-6539 -4344 0
-6539 6158 0
6539 4344 -6158 0
-6540 4344 0
-6540 -6158 0
6540 -4344 6158 0
-6541 -6539 0
-6541 -6540 0
6541 6539 6540 0
-6536 -4343 0
-6536 6157 0
6536 4343 -6157 0
-6537 4343 0
-6537 -6157 0
6537 -4343 6157 0
-6538 -6536 0
-6538 -6537 0
6538 6536 6537 0
-6533 -4342 0
-6533 6156 0
6533 4342 -6156 0
-6534 4342 0
-6534 -6156 0
6534 -4342 6156 0
-6535 -6533 0
-6535 -6534 0
6535 6533 6534 0
-6530 -4341 0
-6530 6155 0
6530 4341 -6155 0
-6531 4341 0
-6531 -6155 0
6531 -4341 6155 0
-6532 -6530 0
-6532 -6531 0
6532 6530 6531 0
-6527 -4340 0
-6527 6154 0
6527 4340 -6154 0
-6528 4340 0
-6528 -6154 0
6528 -4340 6154 0
-6529 -6527 0
-6529 -6528 0
6529 6527 6528 0
-6524 -4339 0
-6524 6153 0
6524 4339 -6153 0
-6525 4339 0
-6525 -6153 0
6525 -4339 6153 0
-6526 -6524 0
-6526 -6525 0
6526 6524 6525 0
-6521 -4338 0
-6521 6152 0
6521 4338 -6152 0
-6522 4338 0
-6522 -6152 0
6522 -4338 6152 0
-6523 -6521 0
-6523 -6522 0
6523 6521 6522 0
-6518 -4337 0
-6518 6151 0
6518 4337 -6151 0
-6519 4337 0
-6519 -6151 0
6519 -4337 6151 0
-6520 -6518 0
-6520 -6519 0
6520 6518 6519 0
-6515 -4336 0
-6515 6150 0
6515 4336 -6150 0
-6516 4336 0
-6516 -6150 0
6516 -4336 6150 0
-6517 -6515 0
-6517 -6516 0
6517 6515 6516 0
-6512 -4335 0
-6512 6149 0
6512 4335 -6149 0
-6513 4335 0
-6513 -6149 0
6513 -4335 6149 0
-6514 -6512 0
-6514 -6513 0
6514 6512 6513 0
-6509 -4334 0
-6509 6148 0
6509 4334 -6148 0
-6510 4334 0
-6510 -6148 0
6510 -4334 6148 0
-6511 -6509 0
-6511 -6510 0
6511 6509 6510 0
-6506 -4333 0
-6506 6147 0
6506 4333 -6147 0
-6507 4333 0
-6507 -6147 0
6507 -4333 6147 0
-6508 -6506 0
-6508 -6507 0
6508 6506 6507 0
-6503 -4332 0
-6503 6146 0
6503 4332 -6146 0
-6504 4332 0
-6504 -6146 0
6504 -4332 6146 0
-6505 -6503 0
-6505 -6504 0
6505 6503 6504 0
-6500 -4331 0
-6500 6145 0
6500 4331 -6145 0
-6501 4331 0
-6501 -6145 0
6501 -4331 6145 0
-6502 -6500 0
-6502 -6501 0
6502 6500 6501 0
-6497 -4330 0
-6497 6144 0
6497 4330 -6144 0
-6498 4330 0
-6498 -6144 0
6498 -4330 6144 0
-6499 -6497 0
-6499 -6498 0
6499 6497 6498 0
-6494 -4329 0
-6494 6143 0
6494 4329 -6143 0
-6495 4329 0
-6495 -6143 0
6495 -4329 6143 0
-6496 -6494 0
-6496 -6495 0
6496 6494 6495 0
-6491 -4328 0
-6491 6142 0
6491 4328 -6142 0
-6492 4328 0
-6492 -6142 0
6492 -4328 6142 0
-6493 -6491 0
-6493 -6492 0
6493 6491 6492 0
-6488 -4327 0
-6488 6141 0
6488 4327 -6141 0
-6489 4327 0
-6489 -6141 0
6489 -4327 6141 0
-6490 -6488 0
-6490 -6489 0
6490 6488 6489 0
-6485 -4326 0
-6485 6140 0
6485 4326 -6140 0
-6486 4326 0
-6486 -6140 0
6486 -4326 6140 0
-6487 -6485 0
-6487 -6486 0
6487 6485 6486 0
-6482 -4325 0
-6482 6139 0
6482 4325 -6139 0
-6483 4325 0
-6483 -6139 0
6483 -4325 6139 0
-6484 -6482 0
-6484 -6483 0
6484 6482 6483 0
-6479 -4324 0
-6479 6138 0
6479 4324 -6138 0
-6480 4324 0
-6480 -6138 0
6480 -4324 6138 0
-6481 -6479 0
-6481 -6480 0
6481 6479 6480 0
-6476 -4323 0
-6476 6137 0
6476 4323 -6137 0
-6477 4323 0
-6477 -6137 0
6477 -4323 6137 0
-6478 -6476 0
-6478 -6477 0
6478 6476 6477 0
-6473 -4322 0
-6473 6136 0
6473 4322 -6136 0
-6474 4322 0
-6474 -6136 0
6474 -4322 6136 0
-6475 -6473 0
-6475 -6474 0
6475 6473 6474 0
-6470 -4321 0
-6470 6135 0
6470 4321 -6135 0
-6471 4321 0
-6471 -6135 0
6471 -4321 6135 0
-6472 -6470 0
-6472 -6471 0
6472 6470 6471 0
-6467 -4320 0
-6467 6134 0
6467 4320 -6134 0
-6468 4320 0
-6468 -6134 0
6468 -4320 6134 0
-6469 -6467 0
-6469 -6468 0
6469 6467 6468 0
-6464 -4319 0
-6464 6133 0
6464 4319 -6133 0
-6465 4319 0
-6465 -6133 0
6465 -4319 6133 0
-6466 -6464 0
-6466 -6465 0
6466 6464 6465 0
-6461 -4318 0
-6461 6132 0
6461 4318 -6132 0
-6462 4318 0
-6462 -6132 0
6462 -4318 6132 0
-6463 -6461 0
-6463 -6462 0
6463 6461 6462 0
-6458 -4317 0
-6458 6131 0
6458 4317 -6131 0
-6459 4317 0
-6459 -6131 0
6459 -4317 6131 0
-6460 -6458 0
-6460 -6459 0
6460 6458 6459 0
-6455 -4316 0
-6455 6130 0
6455 4316 -6130 0
-6456 4316 0
-6456 -6130 0
6456 -4316 6130 0
-6457 -6455 0
-6457 -6456 0
6457 6455 6456 0
-6452 -4315 0
-6452 6129 0
6452 4315 -6129 0
-6453 4315 0
-6453 -6129 0
6453 -4315 6129 0
-6454 -6452 0
-6454 -6453 0
6454 6452 6453 0
-6449 -4314 0
-6449 6128 0
6449 4314 -6128 0
-6450 4314 0
-6450 -6128 0
6450 -4314 6128 0
-6451 -6449 0
-6451 -6450 0
6451 6449 6450 0
-6446 -4313 0
-6446 6127 0
6446 4313 -6127 0
-6447 4313 0
-6447 -6127 0
6447 -4313 6127 0
-6448 -6446 0
-6448 -6447 0
6448 6446 6447 0
-6443 -4312 0
-6443 6126 0
6443 4312 -6126 0
-6444 4312 0
-6444 -6126 0
6444 -4312 6126 0
-6445 -6443 0
-6445 -6444 0
6445 6443 6444 0
-6437 -4310 0
-6437 6124 0
6437 4310 -6124 0
-6438 4310 0
-6438 -6124 0
6438 -4310 6124 0
-6439 -6437 0
-6439 -6438 0
6439 6437 6438 0
-6440 -4311 0
-6440 6125 0
6440 4311 -6125 0
-6441 4311 0
-6441 -6125 0
6441 -4311 6125 0
-6442 -6440 0
-6442 -6441 0
6442 6440 6441 0
-6623 6439 0
-6623 6442 0
6623 -6439 -6442 0
-6624 6445 0
-6624 6623 0
6624 -6445 -6623 0
-6625 6448 0
-6625 6624 0
6625 -6448 -6624 0
-6626 6451 0
-6626 6625 0
6626 -6451 -6625 0
-6627 6454 0
-6627 6626 0
6627 -6454 -6626 0
-6628 6457 0
-6628 6627 0
6628 -6457 -6627 0
-6629 6460 0
-6629 6628 0
6629 -6460 -6628 0
-6630 6463 0
-6630 6629 0
6630 -6463 -6629 0
-6631 6466 0
-6631 6630 0
6631 -6466 -6630 0
-6632 6469 0
-6632 6631 0
6632 -6469 -6631 0
-6633 6472 0
-6633 6632 0
6633 -6472 -6632 0
-6634 6475 0
-6634 6633 0
6634 -6475 -6633 0
-6635 6478 0
-6635 6634 0
6635 -6478 -6634 0
-6636 6481 0
-6636 6635 0
6636 -6481 -6635 0
-6637 6484 0
-6637 6636 0
6637 -6484 -6636 0
-6638 6487 0
-6638 6637 0
6638 -6487 -6637 0
-6639 6490 0
-6639 6638 0
6639 -6490 -6638 0
-6640 6493 0
-6640 6639 0
6640 -6493 -6639 0
-6641 6496 0
-6641 6640 0
6641 -6496 -6640 0
-6642 6499 0
-6642 6641 0
6642 -6499 -6641 0
-6643 6502 0
-6643 6642 0
6643 -6502 -6642 0
-6644 6505 0
-6644 6643 0
6644 -6505 -6643 0
-6645 6508 0
-6645 6644 0
6645 -6508 -6644 0
-6646 6511 0
-6646 6645 0
6646 -6511 -6645 0
-6647 6514 0
-6647 6646 0
6647 -6514 -6646 0
-6648 6517 0
-6648 6647 0
6648 -6517 -6647 0
-6649 6520 0
-6649 6648 0
6649 -6520 -6648 0
-6650 6523 0
-6650 6649 0
6650 -6523 -6649 0
-6651 6526 0
-6651 6650 0
6651 -6526 -6650 0
-6652 6529 0
-6652 6651 0
6652 -6529 -6651 0
-6653 6532 0
-6653 6652 0
6653 -6532 -6652 0
-6654 6535 0
-6654 6653 0
6654 -6535 -6653 0
-6655 6538 0
-6655 6654 0
6655 -6538 -6654 0
-6656 6541 0
-6656 6655 0
6656 -6541 -6655 0
-6657 6544 0
-6657 6656 0
6657 -6544 -6656 0
-6658 6547 0
-6658 6657 0
6658 -6547 -6657 0
-6659 6550 0
-6659 6658 0
6659 -6550 -6658 0
-6660 6553 0
-6660 6659 0
6660 -6553 -6659 0
-6661 6556 0
-6661 6660 0
6661 -6556 -6660 0
-6662 6559 0
-6662 6661 0
6662 -6559 -6661 0
-6663 6562 0
-6663 6662 0
6663 -6562 -6662 0
-6664 6565 0
-6664 6663 0
6664 -6565 -6663 0
-6665 6568 0
-6665 6664 0
6665 -6568 -6664 0
-6666 6571 0
-6666 6665 0
6666 -6571 -6665 0
-6667 6574 0
-6667 6666 0
6667 -6574 -6666 0
-6668 6577 0
-6668 6667 0
6668 -6577 -6667 0
-6669 6580 0
-6669 6668 0
6669 -6580 -6668 0
-6670 6583 0
-6670 6669 0
6670 -6583 -6669 0
-6671 6586 0
-6671 6670 0
6671 -6586 -6670 0
-6672 6589 0
-6672 6671 0
6672 -6589 -6671 0
-6673 6592 0
-6673 6672 0
6673 -6592 -6672 0
-6674 6595 0
-6674 6673 0
6674 -6595 -6673 0
-6675 6598 0
-6675 6674 0
6675 -6598 -6674 0
-6676 6601 0
-6676 6675 0
6676 -6601 -6675 0
-6677 6604 0
-6677 6676 0
6677 -6604 -6676 0
-6678 6607 0
-6678 6677 0
6678 -6607 -6677 0
-6679 6610 0
-6679 6678 0
6679 -6610 -6678 0
-6680 6613 0
-6680 6679 0
6680 -6613 -6679 0
-6681 6616 0
-6681 6680 0
6681 -6616 -6680 0
-6682 6619 0
-6682 6681 0
6682 -6619 -6681 0
-6683 6622 0
-6683 6682 0
6683 -6622 -6682 0
-6684 -6186 0
-6684 6683 0
6684 6186 -6683 0
-6685 -4266 0
-6685 -6684 0
6685 4266 6684 0
-6686 6436 0
-6686 -6685 0
6686 -6436 6685 0
6750 -16968 0
-6750 16968 0
6749 -16967 0
-6749 16967 0
-7174 4933 0
-7174 4934 0
7174 -4933 -4934 0
-7167 4932 0
-7167 4933 0
7167 -4932 -4933 0
-7160 4931 0
-7160 4932 0
7160 -4931 -4932 0
-7153 4930 0
-7153 4931 0
7153 -4930 -4931 0
-7146 4929 0
-7146 4930 0
7146 -4929 -4930 0
-7139 4928 0
-7139 4929 0
7139 -4928 -4929 0
-7132 4927 0
-7132 4928 0
7132 -4927 -4928 0
-7125 4926 0
-7125 4927 0
7125 -4926 -4927 0
-7118 4925 0
-7118 4926 0
7118 -4925 -4926 0
-7111 4924 0
-7111 4925 0
7111 -4924 -4925 0
-7104 4923 0
-7104 4924 0
7104 -4923 -4924 0
-7097 4922 0
-7097 4923 0
7097 -4922 -4923 0
-7090 4921 0
-7090 4922 0
7090 -4921 -4922 0
-7083 4920 0
-7083 4921 0
7083 -4920 -4921 0
-7076 4919 0
-7076 4920 0
7076 -4919 -4920 0
-7069 4918 0
-7069 4919 0
7069 -4918 -4919 0
-7062 4917 0
-7062 4918 0
7062 -4917 -4918 0
-7055 4916 0
-7055 4917 0
7055 -4916 -4917 0
-7048 4915 0
-7048 4916 0
7048 -4915 -4916 0
-7041 4914 0
-7041 4915 0
7041 -4914 -4915 0
-7034 4913 0
-7034 4914 0
7034 -4913 -4914 0
-7027 4912 0
-7027 4913 0
7027 -4912 -4913 0
-7020 4911 0
-7020 4912 0
7020 -4911 -4912 0
-7013 4910 0
-7013 4911 0
7013 -4910 -4911 0
-7006 4909 0
-7006 4910 0
7006 -4909 -4910 0
-6999 4908 0
-6999 4909 0
6999 -4908 -4909 0
-6992 4907 0
-6992 4908 0
6992 -4907 -4908 0
-6985 4906 0
-6985 4907 0
6985 -4906 -4907 0
-6978 4905 0
-6978 4906 0
6978 -4905 -4906 0
-6971 4904 0
-6971 4905 0
6971 -4904 -4905 0
-6964 4903 0
-6964 4904 0
6964 -4903 -4904 0
-6957 4902 0
-6957 4903 0
6957 -4902 -4903 0
-6950 4901 0
-6950 4902 0
6950 -4901 -4902 0
-6943 4900 0
-6943 4901 0
6943 -4900 -4901 0
-6936 4899 0
-6936 4900 0
6936 -4899 -4900 0
-6929 4898 0
-6929 4899 0
6929 -4898 -4899 0
-6922 4897 0
-6922 4898 0
6922 -4897 -4898 0
-6915 4896 0
-6915 4897 0
6915 -4896 -4897 0
-6908 4895 0
-6908 4896 0
6908 -4895 -4896 0
-6901 4894 0
-6901 4895 0
6901 -4894 -4895 0
-6894 4893 0
-6894 4894 0
6894 -4893 -4894 0
-6887 4892 0
-6887 4893 0
6887 -4892 -4893 0
-6880 4891 0
-6880 4892 0
6880 -4891 -4892 0
-6873 4890 0
-6873 4891 0
6873 -4890 -4891 0
-6866 4889 0
-6866 4890 0
6866 -4889 -4890 0
-6859 4888 0
-6859 4889 0
6859 -4888 -4889 0
-6852 4887 0
-6852 4888 0
6852 -4887 -4888 0
-6845 4886 0
-6845 4887 0
6845 -4886 -4887 0
-6838 4885 0
-6838 4886 0
6838 -4885 -4886 0
-6831 4884 0
-6831 4885 0
6831 -4884 -4885 0
-6824 4883 0
-6824 4884 0
6824 -4883 -4884 0
-6817 4882 0
-6817 4883 0
6817 -4882 -4883 0
-6810 4881 0
-6810 4882 0
6810 -4881 -4882 0
-6803 4880 0
-6803 4881 0
6803 -4880 -4881 0
-6796 4879 0
-6796 4880 0
6796 -4879 -4880 0
-6789 4878 0
-6789 4879 0
6789 -4878 -4879 0
-6782 4877 0
-6782 4878 0
6782 -4877 -4878 0
-6775 4876 0
-6775 4877 0
6775 -4876 -4877 0
-6768 4875 0
-6768 4876 0
6768 -4875 -4876 0
-6761 4874 0
-6761 4875 0
6761 -4874 -4875 0
-6754 4873 0
-6754 4874 0
6754 -4873 -4874 0
-6751 4872 0
-6751 4873 0
6751 -4872 -4873 0
-6755 -4873 0
-6755 -4874 0
6755 4873 4874 0
-6756 -6754 0
-6756 -6755 0
6756 6754 6755 0
-6757 6751 0
-6757 6756 0
6757 -6751 -6756 0
-6760 -6754 0
-6760 -6757 0
6760 6754 6757 0
-6762 -4874 0
-6762 -4875 0
6762 4874 4875 0
-6763 -6761 0
-6763 -6762 0
6763 6761 6762 0
-6764 -6760 0
-6764 6763 0
6764 6760 -6763 0
-6767 -6761 0
-6767 -6764 0
6767 6761 6764 0
-6769 -4875 0
-6769 -4876 0
6769 4875 4876 0
-6770 -6768 0
-6770 -6769 0
6770 6768 6769 0
-6771 -6767 0
-6771 6770 0
6771 6767 -6770 0
-6774 -6768 0
-6774 -6771 0
6774 6768 6771 0
-6776 -4876 0
-6776 -4877 0
6776 4876 4877 0
-6777 -6775 0
-6777 -6776 0
6777 6775 6776 0
-6778 -6774 0
-6778 6777 0
6778 6774 -6777 0
-6781 -6775 0
-6781 -6778 0
6781 6775 6778 0
-6783 -4877 0
-6783 -4878 0
6783 4877 4878 0
-6784 -6782 0
-6784 -6783 0
6784 6782 6783 0
-6785 -6781 0
-6785 6784 0
6785 6781 -6784 0
-6788 -6782 0
-6788 -6785 0
6788 6782 6785 0
-6790 -4878 0
-6790 -4879 0
6790 4878 4879 0
-6791 -6789 0
-6791 -6790 0
6791 6789 6790 0
-6792 -6788 0
-6792 6791 0
6792 6788 -6791 0
-6795 -6789 0
-6795 -6792 0
6795 6789 6792 0
-6797 -4879 0
-6797 -4880 0
6797 4879 4880 0
-6798 -6796 0
-6798 -6797 0
6798 6796 6797 0
-6799 -6795 0
-6799 6798 0
6799 6795 -6798 0
-6802 -6796 0
-6802 -6799 0
6802 6796 6799 0
-6804 -4880 0
-6804 -4881 0
6804 4880 4881 0
-6805 -6803 0
-6805 -6804 0
6805 6803 6804 0
-6806 -6802 0
-6806 6805 0
6806 6802 -6805 0
-6809 -6803 0
-6809 -6806 0
6809 6803 6806 0
-6811 -4881 0
-6811 -4882 0
6811 4881 4882 0
-6812 -6810 0
-6812 -6811 0
6812 6810 6811 0
-6813 -6809 0
-6813 6812 0
6813 6809 -6812 0
-6816 -6810 0
-6816 -6813 0
6816 6810 6813 0
-6818 -4882 0
-6818 -4883 0
6818 4882 4883 0
-6819 -6817 0
-6819 -6818 0
6819 6817 6818 0
-6820 -6816 0
-6820 6819 0
6820 6816 -6819 0
-6823 -6817 0
-6823 -6820 0
6823 6817 6820 0
-6825 -4883 0
-6825 -4884 0
6825 4883 4884 0
-6826 -6824 0
-6826 -6825 0
6826 6824 6825 0
-6827 -6823 0
-6827 6826 0
6827 6823 -6826 0
-6830 -6824 0
-6830 -6827 0
6830 6824 6827 0
-6832 -4884 0
-6832 -4885 0
6832 4884 4885 0
-6833 -6831 0
-6833 -6832 0
6833 6831 6832 0
-6834 -6830 0
-6834 6833 0
6834 6830 -6833 0
-6837 -6831 0
-6837 -6834 0
6837 6831 6834 0
-6839 -4885 0
-6839 -4886 0
6839 4885 4886 0
-6840 -6838 0
-6840 -6839 0
6840 6838 6839 0
-6841 -6837 0
-6841 6840 0
6841 6837 -6840 0
-6844 -6838 0
-6844 -6841 0
6844 6838 6841 0
-6846 -4886 0
-6846 -4887 0
6846 4886 4887 0
-6847 -6845 0
-6847 -6846 0
6847 6845 6846 0
-6848 -6844 0
-6848 6847 0
6848 6844 -6847 0
-6851 -6845 0
-6851 -6848 0
6851 6845 6848 0
-6853 -4887 0
-6853 -4888 0
6853 4887 4888 0
-6854 -6852 0
-6854 -6853 0
6854 6852 6853 0
-6855 -6851 0
-6855 6854 0
6855 6851 -6854 0
-6858 -6852 0
-6858 -6855 0
6858 6852 6855 0
-6860 -4888 0
-6860 -4889 0
6860 4888 4889 0
-6861 -6859 0
-6861 -6860 0
6861 6859 6860 0
-6862 -6858 0
-6862 6861 0
6862 6858 -6861 0
-6865 -6859 0
-6865 -6862 0
6865 6859 6862 0
-6867 -4889 0
-6867 -4890 0
6867 4889 4890 0
-6868 -6866 0
-6868 -6867 0
6868 6866 6867 0
-6869 -6865 0
-6869 6868 0
6869 6865 -6868 0
-6872 -6866 0
-6872 -6869 0
6872 6866 6869 0
-6874 -4890 0
-6874 -4891 0
6874 4890 4891 0
-6875 -6873 0
-6875 -6874 0
6875 6873 6874 0
-6876 -6872 0
-6876 6875 0
6876 6872 -6875 0
-6879 -6873 0
-6879 -6876 0
6879 6873 6876 0
-6881 -4891 0
-6881 -4892 0
6881 4891 4892 0
-6882 -6880 0
-6882 -6881 0
6882 6880 6881 0
-6883 -6879 0
-6883 6882 0
6883 6879 -6882 0
-6886 -6880 0
-6886 -6883 0
6886 6880 6883 0
-6888 -4892 0
-6888 -4893 0
6888 4892 4893 0
-6889 -6887 0
-6889 -6888 0
6889 6887 6888 0
-6890 -6886 0
-6890 6889 0
6890 6886 -6889 0
-6893 -6887 0
-6893 -6890 0
6893 6887 6890 0
-6895 -4893 0
-6895 -4894 0
6895 4893 4894 0
-6896 -6894 0
-6896 -6895 0
6896 6894 6895 0
-6897 -6893 0
-6897 6896 0
6897 6893 -6896 0
-6900 -6894 0
-6900 -6897 0
6900 6894 6897 0
-6902 -4894 0
-6902 -4895 0
6902 4894 4895 0
-6903 -6901 0
-6903 -6902 0
6903 6901 6902 0
-6904 -6900 0
-6904 6903 0
6904 6900 -6903 0
-6907 -6901 0
-6907 -6904 0
6907 6901 6904 0
-6909 -4895 0
-6909 -4896 0
6909 4895 4896 0
-6910 -6908 0
-6910 -6909 0
6910 6908 6909 0
-6911 -6907 0
-6911 6910 0
6911 6907 -6910 0
-6914 -6908 0
-6914 -6911 0
6914 6908 6911 0
-6916 -4896 0
-6916 -4897 0
6916 4896 4897 0
-6917 -6915 0
-6917 -6916 0
6917 6915 6916 0
-6918 -6914 0
-6918 6917 0
6918 6914 -6917 0
-6921 -6915 0
-6921 -6918 0
6921 6915 6918 0
-6923 -4897 0
-6923 -4898 0
6923 4897 4898 0
-6924 -6922 0
-6924 -6923 0
6924 6922 6923 0
-6925 -6921 0
-6925 6924 0
6925 6921 -6924 0
-6928 -6922 0
-6928 -6925 0
6928 6922 6925 0
-6930 -4898 0
-6930 -4899 0
6930 4898 4899 0
-6931 -6929 0
-6931 -6930 0
6931 6929 6930 0
-6932 -6928 0
-6932 6931 0
6932 6928 -6931 0
-6935 -6929 0
-6935 -6932 0
6935 6929 6932 0
-6937 -4899 0
-6937 -4900 0
6937 4899 4900 0
-6938 -6936 0
-6938 -6937 0
6938 6936 6937 0
-6939 -6935 0
-6939 6938 0
6939 6935 -6938 0
-6942 -6936 0
-6942 -6939 0
6942 6936 6939 0
-6944 -4900 0
-6944 -4901 0
6944 4900 4901 0
-6945 -6943 0
-6945 -6944 0
6945 6943 6944 0
-6946 -6942 0
-6946 6945 0
6946 6942 -6945 0
-6949 -6943 0
-6949 -6946 0
6949 6943 6946 0
-6951 -4901 0
-6951 -4902 0
6951 4901 4902 0
-6952 -6950 0
-6952 -6951 0
6952 6950 6951 0
-6953 -6949 0
-6953 6952 0
6953 6949 -6952 0
-6956 -6950 0
-6956 -6953 0
6956 6950 6953 0
-6958 -4902 0
-6958 -4903 0
6958 4902 4903 0
-6959 -6957 0
-6959 -6958 0
6959 6957 6958 0
-6960 -6956 0
-6960 6959 0
6960 6956 -6959 0
-6963 -6957 0
-6963 -6960 0
6963 6957 6960 0
-6965 -4903 0
-6965 -4904 0
6965 4903 4904 0
-6966 -6964 0
-6966 -6965 0
6966 6964 6965 0
-6967 -6963 0
-6967 6966 0
6967 6963 -6966 0
-6970 -6964 0
-6970 -6967 0
6970 6964 6967 0
-6972 -4904 0
-6972 -4905 0
6972 4904 4905 0
-6973 -6971 0
-6973 -6972 0
6973 6971 6972 0
-6974 -6970 0
-6974 6973 0
6974 6970 -6973 0
-6977 -6971 0
-6977 -6974 0
6977 6971 6974 0
-6979 -4905 0
-6979 -4906 0
6979 4905 4906 0
-6980 -6978 0
-6980 -6979 0
6980 6978 6979 0
-6981 -6977 0
-6981 6980 0
6981 6977 -6980 0
-6984 -6978 0
-6984 -6981 0
6984 6978 6981 0
-6986 -4906 0
-6986 -4907 0
6986 4906 4907 0
-6987 -6985 0
-6987 -6986 0
6987 6985 6986 0
-6988 -6984 0
-6988 6987 0
6988 6984 -6987 0
-6991 -6985 0
-6991 -6988 0
6991 6985 6988 0
-6993 -4907 0
-6993 -4908 0
6993 4907 4908 0
-6994 -6992 0
-6994 -6993 0
6994 6992 6993 0
-6995 -6991 0
-6995 6994 0
6995 6991 -6994 0
-6998 -6992 0
-6998 -6995 0
6998 6992 6995 0
-7000 -4908 0
-7000 -4909 0
7000 4908 4909 0
-7001 -6999 0
-7001 -7000 0
7001 6999 7000 0
-7002 -6998 0
-7002 7001 0
7002 6998 -7001 0
-7005 -6999 0
-7005 -7002 0
7005 6999 7002 0
-7007 -4909 0
-7007 -4910 0
7007 4909 4910 0
-7008 -7006 0
-7008 -7007 0
7008 7006 7007 0
-7009 -7005 0
-7009 7008 0
7009 7005 -7008 0
-7012 -7006 0
-7012 -7009 0
7012 7006 7009 0
-7014 -4910 0
-7014 -4911 0
7014 4910 4911 0
-7015 -7013 0
-7015 -7014 0
7015 7013 7014 0
-7016 -7012 0
-7016 7015 0
7016 7012 -7015 0
-7019 -7013 0
-7019 -7016 0
7019 7013 7016 0
-7021 -4911 0
-7021 -4912 0
7021 4911 4912 0
-7022 -7020 0
-7022 -7021 0
7022 7020 7021 0
-7023 -7019 0
-7023 7022 0
7023 7019 -7022 0
-7026 -7020 0
-7026 -7023 0
7026 7020 7023 0
-7028 -4912 0
-7028 -4913 0
7028 4912 4913 0
-7029 -7027 0
-7029 -7028 0
7029 7027 7028 0
-7030 -7026 0
-7030 7029 0
7030 7026 -7029 0
-7033 -7027 0
-7033 -7030 0
7033 7027 7030 0
-7035 -4913 0
-7035 -4914 0
7035 4913 4914 0
-7036 -7034 0
-7036 -7035 0
7036 7034 7035 0
-7037 -7033 0
-7037 7036 0
7037 7033 -7036 0
-7040 -7034 0
-7040 -7037 0
7040 7034 7037 0
-7042 -4914 0
-7042 -4915 0
7042 4914 4915 0
-7043 -7041 0
-7043 -7042 0
7043 7041 7042 0
-7044 -7040 0
-7044 7043 0
7044 7040 -7043 0
-7047 -7041 0
-7047 -7044 0
7047 7041 7044 0
-7049 -4915 0
-7049 -4916 0
7049 4915 4916 0
-7050 -7048 0
-7050 -7049 0
7050 7048 7049 0
-7051 -7047 0
-7051 7050 0
7051 7047 -7050 0
-7054 -7048 0
-7054 -7051 0
7054 7048 7051 0
-7056 -4916 0
-7056 -4917 0
7056 4916 4917 0
-7057 -7055 0
-7057 -7056 0
7057 7055 7056 0
-7058 -7054 0
-7058 7057 0
7058 7054 -7057 0
-7061 -7055 0
-7061 -7058 0
7061 7055 7058 0
-7063 -4917 0
-7063 -4918 0
7063 4917 4918 0
-7064 -7062 0
-7064 -7063 0
7064 7062 7063 0
-7065 -7061 0
-7065 7064 0
7065 7061 -7064 0
-7068 -7062 0
-7068 -7065 0
7068 7062 7065 0
-7070 -4918 0
-7070 -4919 0
7070 4918 4919 0
-7071 -7069 0
-7071 -7070 0
7071 7069 7070 0
-7072 -7068 0
-7072 7071 0
7072 7068 -7071 0
-7075 -7069 0
-7075 -7072 0
7075 7069 7072 0
-7077 -4919 0
-7077 -4920 0
7077 4919 4920 0
-7078 -7076 0
-7078 -7077 0
7078 7076 7077 0
-7079 -7075 0
-7079 7078 0
7079 7075 -7078 0
-7082 -7076 0
-7082 -7079 0
7082 7076 7079 0
-7084 -4920 0
-7084 -4921 0
7084 4920 4921 0
-7085 -7083 0
-7085 -7084 0
7085 7083 7084 0
-7086 -7082 0
-7086 7085 0
7086 7082 -7085 0
-7089 -7083 0
-7089 -7086 0
7089 7083 7086 0
-7091 -4921 0
-7091 -4922 0
7091 4921 4922 0
-7092 -7090 0
-7092 -7091 0
7092 7090 7091 0
-7093 -7089 0
-7093 7092 0
7093 7089 -7092 0
-7096 -7090 0
-7096 -7093 0
7096 7090 7093 0
-7098 -4922 0
-7098 -4923 0
7098 4922 4923 0
-7099 -7097 0
-7099 -7098 0
7099 7097 7098 0
-7100 -7096 0
-7100 7099 0
7100 7096 -7099 0
-7103 -7097 0
-7103 -7100 0
7103 7097 7100 0
-7105 -4923 0
-7105 -4924 0
7105 4923 4924 0
-7106 -7104 0
-7106 -7105 0
7106 7104 7105 0
-7107 -7103 0
-7107 7106 0
7107 7103 -7106 0
-7110 -7104 0
-7110 -7107 0
7110 7104 7107 0
-7112 -4924 0
-7112 -4925 0
7112 4924 4925 0
-7113 -7111 0
-7113 -7112 0
7113 7111 7112 0
-7114 -7110 0
-7114 7113 0
7114 7110 -7113 0
-7117 -7111 0
-7117 -7114 0
7117 7111 7114 0
-7119 -4925 0
-7119 -4926 0
7119 4925 4926 0
-7120 -7118 0
-7120 -7119 0
7120 7118 7119 0
-7121 -7117 0
-7121 7120 0
7121 7117 -7120 0
-7124 -7118 0
-7124 -7121 0
7124 7118 7121 0
-7126 -4926 0
-7126 -4927 0
7126 4926 4927 0
-7127 -7125 0
-7127 -7126 0
7127 7125 7126 0
-7128 -7124 0
-7128 7127 0
7128 7124 -7127 0
-7131 -7125 0
-7131 -7128 0
7131 7125 7128 0
-7133 -4927 0
-7133 -4928 0
7133 4927 4928 0
-7134 -7132 0
-7134 -7133 0
7134 7132 7133 0
-7135 -7131 0
-7135 7134 0
7135 7131 -7134 0
-7138 -7132 0
-7138 -7135 0
7138 7132 7135 0
-7140 -4928 0
-7140 -4929 0
7140 4928 4929 0
-7141 -7139 0
-7141 -7140 0
7141 7139 7140 0
-7142 -7138 0
-7142 7141 0
7142 7138 -7141 0
-7145 -7139 0
-7145 -7142 0
7145 7139 7142 0
-7147 -4929 0
-7147 -4930 0
7147 4929 4930 0
-7148 -7146 0
-7148 -7147 0
7148 7146 7147 0
-7149 -7145 0
-7149 7148 0
7149 7145 -7148 0
-7152 -7146 0
-7152 -7149 0
7152 7146 7149 0
-7154 -4930 0
-7154 -4931 0
7154 4930 4931 0
-7155 -7153 0
-7155 -7154 0
7155 7153 7154 0
-7156 -7152 0
-7156 7155 0
7156 7152 -7155 0
-7159 -7153 0
-7159 -7156 0
7159 7153 7156 0
-7161 -4931 0
-7161 -4932 0
7161 4931 4932 0
-7162 -7160 0
-7162 -7161 0
7162 7160 7161 0
-7163 -7159 0
-7163 7162 0
7163 7159 -7162 0
-7166 -7160 0
-7166 -7163 0
7166 7160 7163 0
-7168 -4932 0
-7168 -4933 0
7168 4932 4933 0
-7169 -7167 0
-7169 -7168 0
7169 7167 7168 0
-7170 -7166 0
-7170 7169 0
7170 7166 -7169 0
-7173 -7167 0
-7173 -7170 0
7173 7167 7170 0
-7175 -4933 0
-7175 -4934 0
7175 4933 4934 0
-7176 -7174 0
-7176 -7175 0
7176 7174 7175 0
-7177 -7173 0
-7177 7176 0
7177 7173 -7176 0
-7180 -7174 0
-7180 -7177 0
7180 7174 7177 0
-7181 4934 0
-7181 4935 0
7181 -4934 -4935 0
-7182 -4934 0
-7182 -4935 0
7182 4934 4935 0
-7183 -7181 0
-7183 -7182 0
7183 7181 7182 0
-7184 -7180 0
-7184 7183 0
7184 7180 -7183 0
-7185 7180 0
-7185 -7183 0
7185 -7180 7183 0
-7186 -7184 0
-7186 -7185 0
7186 7184 7185 0
-7178 7173 0
-7178 -7176 0
7178 -7173 7176 0
-7179 -7177 0
-7179 -7178 0
7179 7177 7178 0
-7171 7166 0
-7171 -7169 0
7171 -7166 7169 0
-7172 -7170 0
-7172 -7171 0
7172 7170 7171 0
-7164 7159 0
-7164 -7162 0
7164 -7159 7162 0
-7165 -7163 0
-7165 -7164 0
7165 7163 7164 0
-7157 7152 0
-7157 -7155 0
7157 -7152 7155 0
-7158 -7156 0
-7158 -7157 0
7158 7156 7157 0
-7150 7145 0
-7150 -7148 0
7150 -7145 7148 0
-7151 -7149 0
-7151 -7150 0
7151 7149 7150 0
-7143 7138 0
-7143 -7141 0
7143 -7138 7141 0
-7144 -7142 0
-7144 -7143 0
7144 7142 7143 0
-7136 7131 0
-7136 -7134 0
7136 -7131 7134 0
-7137 -7135 0
-7137 -7136 0
7137 7135 7136 0
-7129 7124 0
-7129 -7127 0
7129 -7124 7127 0
-7130 -7128 0
-7130 -7129 0
7130 7128 7129 0
-7122 7117 0
-7122 -7120 0
7122 -7117 7120 0
-7123 -7121 0
-7123 -7122 0
7123 7121 7122 0
-7115 7110 0
-7115 -7113 0
7115 -7110 7113 0
-7116 -7114 0
-7116 -7115 0
7116 7114 7115 0
-7108 7103 0
-7108 -7106 0
7108 -7103 7106 0
-7109 -7107 0
-7109 -7108 0
7109 7107 7108 0
-7101 7096 0
-7101 -7099 0
7101 -7096 7099 0
-7102 -7100 0
-7102 -7101 0
7102 7100 7101 0
-7094 7089 0
-7094 -7092 0
7094 -7089 7092 0
-7095 -7093 0
-7095 -7094 0
7095 7093 7094 0
-7087 7082 0
-7087 -7085 0
7087 -7082 7085 0
-7088 -7086 0
-7088 -7087 0
7088 7086 7087 0
-7080 7075 0
-7080 -7078 0
7080 -7075 7078 0
-7081 -7079 0
-7081 -7080 0
7081 7079 7080 0
-7073 7068 0
-7073 -7071 0
7073 -7068 7071 0
-7074 -7072 0
-7074 -7073 0
7074 7072 7073 0
-7066 7061 0
-7066 -7064 0
7066 -7061 7064 0
-7067 -7065 0
-7067 -7066 0
7067 7065 7066 0
-7059 7054 0
-7059 -7057 0
7059 -7054 7057 0
-7060 -7058 0
-7060 -7059 0
7060 7058 7059 0
-7052 7047 0
-7052 -7050 0
7052 -7047 7050 0
-7053 -7051 0
-7053 -7052 0
7053 7051 7052 0
-7045 7040 0
-7045 -7043 0
7045 -7040 7043 0
-7046 -7044 0
-7046 -7045 0
7046 7044 7045 0
-7038 7033 0
-7038 -7036 0
7038 -7033 7036 0
-7039 -7037 0
-7039 -7038 0
7039 7037 7038 0
-7031 7026 0
-7031 -7029 0
7031 -7026 7029 0
-7032 -7030 0
-7032 -7031 0
7032 7030 7031 0
-7024 7019 0
-7024 -7022 0
7024 -7019 7022 0
-7025 -7023 0
-7025 -7024 0
7025 7023 7024 0
-7017 7012 0
-7017 -7015 0
7017 -7012 7015 0
-7018 -7016 0
-7018 -7017 0
7018 7016 7017 0
-7010 7005 0
-7010 -7008 0
7010 -7005 7008 0
-7011 -7009 0
-7011 -7010 0
7011 7009 7010 0
-7003 6998 0
-7003 -7001 0
7003 -6998 7001 0
-7004 -7002 0
-7004 -7003 0
7004 7002 7003 0
-6996 6991 0
-6996 -6994 0
6996 -6991 6994 0
-6997 -6995 0
-6997 -6996 0
6997 6995 6996 0
-6989 6984 0
-6989 -6987 0
6989 -6984 6987 0
-6990 -6988 0
-6990 -6989 0
6990 6988 6989 0
-6982 6977 0
-6982 -6980 0
6982 -6977 6980 0
-6983 -6981 0
-6983 -6982 0
6983 6981 6982 0
-6975 6970 0
-6975 -6973 0
6975 -6970 6973 0
-6976 -6974 0
-6976 -6975 0
6976 6974 6975 0
-6968 6963 0
-6968 -6966 0
6968 -6963 6966 0
-6969 -6967 0
-6969 -6968 0
6969 6967 6968 0
-6961 6956 0
-6961 -6959 0
6961 -6956 6959 0
-6962 -6960 0
-6962 -6961 0
6962 6960 6961 0
-6954 6949 0
-6954 -6952 0
6954 -6949 6952 0
-6955 -6953 0
-6955 -6954 0
6955 6953 6954 0
-6947 6942 0
-6947 -6945 0
6947 -6942 6945 0
-6948 -6946 0
-6948 -6947 0
6948 6946 6947 0
-6940 6935 0
-6940 -6938 0
6940 -6935 6938 0
-6941 -6939 0
-6941 -6940 0
6941 6939 6940 0
-6933 6928 0
-6933 -6931 0
6933 -6928 6931 0
-6934 -6932 0
-6934 -6933 0
6934 6932 6933 0
-6926 6921 0
-6926 -6924 0
6926 -6921 6924 0
-6927 -6925 0
-6927 -6926 0
6927 6925 6926 0
-6919 6914 0
-6919 -6917 0
6919 -6914 6917 0
-6920 -6918 0
-6920 -6919 0
6920 6918 6919 0
-6912 6907 0
-6912 -6910 0
6912 -6907 6910 0
-6913 -6911 0
-6913 -6912 0
6913 6911 6912 0
-6905 6900 0
-6905 -6903 0
6905 -6900 6903 0
-6906 -6904 0
-6906 -6905 0
6906 6904 6905 0
-6898 6893 0
-6898 -6896 0
6898 -6893 6896 0
-6899 -6897 0
-6899 -6898 0
6899 6897 6898 0
-6891 6886 0
-6891 -6889 0
6891 -6886 6889 0
-6892 -6890 0
-6892 -6891 0
6892 6890 6891 0
-6884 6879 0
-6884 -6882 0
6884 -6879 6882 0
-6885 -6883 0
-6885 -6884 0
6885 6883 6884 0
-6877 6872 0
-6877 -6875 0
6877 -6872 6875 0
-6878 -6876 0
-6878 -6877 0
6878 6876 6877 0
-6870 6865 0
-6870 -6868 0
6870 -6865 6868 0
-6871 -6869 0
-6871 -6870 0
6871 6869 6870 0
-6863 6858 0
-6863 -6861 0
6863 -6858 6861 0
-6864 -6862 0
-6864 -6863 0
6864 6862 6863 0
-6856 6851 0
-6856 -6854 0
6856 -6851 6854 0
-6857 -6855 0
-6857 -6856 0
6857 6855 6856 0
-6849 6844 0
-6849 -6847 0
6849 -6844 6847 0
-6850 -6848 0
-6850 -6849 0
6850 6848 6849 0
-6842 6837 0
-6842 -6840 0
6842 -6837 6840 0
-6843 -6841 0
-6843 -6842 0
6843 6841 6842 0
-6835 6830 0
-6835 -6833 0
6835 -6830 6833 0
-6836 -6834 0
-6836 -6835 0
6836 6834 6835 0
-6828 6823 0
-6828 -6826 0
6828 -6823 6826 0
-6829 -6827 0
-6829 -6828 0
6829 6827 6828 0
-6821 6816 0
-6821 -6819 0
6821 -6816 6819 0
-6822 -6820 0
-6822 -6821 0
6822 6820 6821 0
-6814 6809 0
-6814 -6812 0
6814 -6809 6812 0
-6815 -6813 0
-6815 -6814 0
6815 6813 6814 0
-6807 6802 0
-6807 -6805 0
6807 -6802 6805 0
-6808 -6806 0
-6808 -6807 0
6808 6806 6807 0
-6800 6795 0
-6800 -6798 0
6800 -6795 6798 0
-6801 -6799 0
-6801 -6800 0
6801 6799 6800 0
-6793 6788 0
-6793 -6791 0
6793 -6788 6791 0
-6794 -6792 0
-6794 -6793 0
6794 6792 6793 0
-6786 6781 0
-6786 -6784 0
6786 -6781 6784 0
-6787 -6785 0
-6787 -6786 0
6787 6785 6786 0
-6779 6774 0
-6779 -6777 0
6779 -6774 6777 0
-6780 -6778 0
-6780 -6779 0
6780 6778 6779 0
-6772 6767 0
-6772 -6770 0
6772 -6767 6770 0
-6773 -6771 0
-6773 -6772 0
6773 6771 6772 0
-6765 6760 0
-6765 -6763 0
6765 -6760 6763 0
-6766 -6764 0
-6766 -6765 0
6766 6764 6765 0
-6758 -6751 0
-6758 -6756 0
6758 6751 6756 0
-6759 -6757 0
-6759 -6758 0
6759 6757 6758 0
-6752 -4872 0
-6752 -4873 0
6752 4872 4873 0
-6753 -6751 0
-6753 -6752 0
6753 6751 6752 0
-7188 4872 0
-7188 6753 0
7188 -4872 -6753 0
-7191 6759 0
-7191 7188 0
7191 -6759 -7188 0
-7194 6766 0
-7194 7191 0
7194 -6766 -7191 0
-7197 6773 0
-7197 7194 0
7197 -6773 -7194 0
-7200 6780 0
-7200 7197 0
7200 -6780 -7197 0
-7203 6787 0
-7203 7200 0
7203 -6787 -7200 0
-7206 6794 0
-7206 7203 0
7206 -6794 -7203 0
-7209 6801 0
-7209 7206 0
7209 -6801 -7206 0
-7212 6808 0
-7212 7209 0
7212 -6808 -7209 0
-7215 6815 0
-7215 7212 0
7215 -6815 -7212 0
-7218 6822 0
-7218 7215 0
7218 -6822 -7215 0
-7221 6829 0
-7221 7218 0
7221 -6829 -7218 0
-7224 6836 0
-7224 7221 0
7224 -6836 -7221 0
-7227 6843 0
-7227 7224 0
7227 -6843 -7224 0
-7230 6850 0
-7230 7227 0
7230 -6850 -7227 0
-7233 6857 0
-7233 7230 0
7233 -6857 -7230 0
-7236 6864 0
-7236 7233 0
7236 -6864 -7233 0
-7239 6871 0
-7239 7236 0
7239 -6871 -7236 0
-7242 6878 0
-7242 7239 0
7242 -6878 -7239 0
-7245 6885 0
-7245 7242 0
7245 -6885 -7242 0
-7248 6892 0
-7248 7245 0
7248 -6892 -7245 0
-7251 6899 0
-7251 7248 0
7251 -6899 -7248 0
-7254 6906 0
-7254 7251 0
7254 -6906 -7251 0
-7257 6913 0
-7257 7254 0
7257 -6913 -7254 0
-7260 6920 0
-7260 7257 0
7260 -6920 -7257 0
-7263 6927 0
-7263 7260 0
7263 -6927 -7260 0
-7266 6934 0
-7266 7263 0
7266 -6934 -7263 0
-7269 6941 0
-7269 7266 0
7269 -6941 -7266 0
-7272 6948 0
-7272 7269 0
7272 -6948 -7269 0
-7275 6955 0
-7275 7272 0
7275 -6955 -7272 0
-7278 6962 0
-7278 7275 0
7278 -6962 -7275 0
-7281 6969 0
-7281 7278 0
7281 -6969 -7278 0
-7284 6976 0
-7284 7281 0
7284 -6976 -7281 0
-7287 6983 0
-7287 7284 0
7287 -6983 -7284 0
-7290 6990 0
-7290 7287 0
7290 -6990 -7287 0
-7293 6997 0
-7293 7290 0
7293 -6997 -7290 0
-7296 7004 0
-7296 7293 0
7296 -7004 -7293 0
-7299 7011 0
-7299 7296 0
7299 -7011 -7296 0
-7302 7018 0
-7302 7299 0
7302 -7018 -7299 0
-7305 7025 0
-7305 7302 0
7305 -7025 -7302 0
-7308 7032 0
-7308 7305 0
7308 -7032 -7305 0
-7311 7039 0
-7311 7308 0
7311 -7039 -7308 0
-7314 7046 0
-7314 7311 0
7314 -7046 -7311 0
-7317 7053 0
-7317 7314 0
7317 -7053 -7314 0
-7320 7060 0
-7320 7317 0
7320 -7060 -7317 0
-7323 7067 0
-7323 7320 0
7323 -7067 -7320 0
-7326 7074 0
-7326 7323 0
7326 -7074 -7323 0
-7329 7081 0
-7329 7326 0
7329 -7081 -7326 0
-7332 7088 0
-7332 7329 0
7332 -7088 -7329 0
-7335 7095 0
-7335 7332 0
7335 -7095 -7332 0
-7338 7102 0
-7338 7335 0
7338 -7102 -7335 0
-7341 7109 0
-7341 7338 0
7341 -7109 -7338 0
-7344 7116 0
-7344 7341 0
7344 -7116 -7341 0
-7347 7123 0
-7347 7344 0
7347 -7123 -7344 0
-7350 7130 0
-7350 7347 0
7350 -7130 -7347 0
-7353 7137 0
-7353 7350 0
7353 -7137 -7350 0
-7356 7144 0
-7356 7353 0
7356 -7144 -7353 0
-7359 7151 0
-7359 7356 0
7359 -7151 -7356 0
-7362 7158 0
-7362 7359 0
7362 -7158 -7359 0
-7365 7165 0
-7365 7362 0
7365 -7165 -7362 0
-7368 7172 0
-7368 7365 0
7368 -7172 -7365 0
-7371 7179 0
-7371 7368 0
7371 -7179 -7368 0
-7374 7186 0
-7374 7371 0
7374 -7186 -7371 0
-7375 -7186 0
-7375 -7371 0
7375 7186 7371 0
-7376 -7374 0
-7376 -7375 0
7376 7374 7375 0
-7563 6749 0
-7563 -7376 0
7563 -6749 7376 0
-7564 -6749 0
-7564 7376 0
7564 6749 -7376 0
-7565 -7563 0
-7565 -7564 0
7565 7563 7564 0
6748 -16966 0
-6748 16966 0
-7372 -7179 0
-7372 -7368 0
7372 7179 7368 0
-7373 -7371 0
-7373 -7372 0
7373 7371 7372 0
-7560 6748 0
-7560 -7373 0
7560 -6748 7373 0
-7561 -6748 0
-7561 7373 0
7561 6748 -7373 0
-7562 -7560 0
-7562 -7561 0
7562 7560 7561 0
6747 -16965 0
-6747 16965 0
-7369 -7172 0
-7369 -7365 0
7369 7172 7365 0
-7370 -7368 0
-7370 -7369 0
7370 7368 7369 0
-7557 6747 0
-7557 -7370 0
7557 -6747 7370 0
-7558 -6747 0
-7558 7370 0
7558 6747 -7370 0
-7559 -7557 0
-7559 -7558 0
7559 7557 7558 0
6746 -16964 0
-6746 16964 0
-7366 -7165 0
-7366 -7362 0
7366 7165 7362 0
-7367 -7365 0
-7367 -7366 0
7367 7365 7366 0
-7554 6746 0
-7554 -7367 0
7554 -6746 7367 0
-7555 -6746 0
-7555 7367 0
7555 6746 -7367 0
-7556 -7554 0
-7556 -7555 0
7556 7554 7555 0
6745 -16963 0
-6745 16963 0
-7363 -7158 0
-7363 -7359 0
7363 7158 7359 0
-7364 -7362 0
-7364 -7363 0
7364 7362 7363 0
-7551 6745 0
-7551 -7364 0
7551 -6745 7364 0
-7552 -6745 0
-7552 7364 0
7552 6745 -7364 0
-7553 -7551 0
-7553 -7552 0
7553 7551 7552 0
6744 -16962 0
-6744 16962 0
-7360 -7151 0
-7360 -7356 0
7360 7151 7356 0
-7361 -7359 0
-7361 -7360 0
7361 7359 7360 0
-7548 6744 0
-7548 -7361 0
7548 -6744 7361 0
-7549 -6744 0
-7549 7361 0
7549 6744 -7361 0
-7550 -7548 0
-7550 -7549 0
7550 7548 7549 0
6743 -16961 0
-6743 16961 0
-7357 -7144 0
-7357 -7353 0
7357 7144 7353 0
-7358 -7356 0
-7358 -7357 0
7358 7356 7357 0
-7545 6743 0
-7545 -7358 0
7545 -6743 7358 0
-7546 -6743 0
-7546 7358 0
7546 6743 -7358 0
-7547 -7545 0
-7547 -7546 0
7547 7545 7546 0
6742 -16960 0
-6742 16960 0
-7354 -7137 0
-7354 -7350 0
7354 7137 7350 0
-7355 -7353 0
-7355 -7354 0
7355 7353 7354 0
-7542 6742 0
-7542 -7355 0
7542 -6742 7355 0
-7543 -6742 0
-7543 7355 0
7543 6742 -7355 0
-7544 -7542 0
-7544 -7543 0
7544 7542 7543 0
6741 -16959 0
-6741 16959 0
-7351 -7130 0
-7351 -7347 0
7351 7130 7347 0
-7352 -7350 0
-7352 -7351 0
7352 7350 7351 0
-7539 6741 0
-7539 -7352 0
7539 -6741 7352 0
-7540 -6741 0
-7540 7352 0
7540 6741 -7352 0
-7541 -7539 0
-7541 -7540 0
7541 7539 7540 0
6740 -16958 0
-6740 16958 0
-7348 -7123 0
-7348 -7344 0
7348 7123 7344 0
-7349 -7347 0
-7349 -7348 0
7349 7347 7348 0
-7536 6740 0
-7536 -7349 0
7536 -6740 7349 0
-7537 -6740 0
-7537 7349 0
7537 6740 -7349 0
-7538 -7536 0
-7538 -7537 0
7538 7536 7537 0
6739 -16957 0
-6739 16957 0
-7345 -7116 0
-7345 -7341 0
7345 7116 7341 0
-7346 -7344 0
-7346 -7345 0
7346 7344 7345 0
-7533 6739 0
-7533 -7346 0
7533 -6739 7346 0
-7534 -6739 0
-7534 7346 0
7534 6739 -7346 0
-7535 -7533 0
-7535 -7534 0
7535 7533 7534 0
6738 -16956 0
-6738 16956 0
-7342 -7109 0
-7342 -7338 0
7342 7109 7338 0
-7343 -7341 0
-7343 -7342 0
7343 7341 7342 0
-7530 6738 0
-7530 -7343 0
7530 -6738 7343 0
-7531 -6738 0
-7531 7343 0
7531 6738 -7343 0
-7532 -7530 0
-7532 -7531 0
7532 7530 7531 0
6737 -16955 0
-6737 16955 0
-7339 -7102 0
-7339 -7335 0
7339 7102 7335 0
-7340 -7338 0
-7340 -7339 0
7340 7338 7339 0
-7527 6737 0
-7527 -7340 0
7527 -6737 7340 0
-7528 -6737 0
-7528 7340 0
7528 6737 -7340 0
-7529 -7527 0
-7529 -7528 0
7529 7527 7528 0
6736 -16954 0
-6736 16954 0
-7336 -7095 0
-7336 -7332 0
7336 7095 7332 0
-7337 -7335 0
-7337 -7336 0
7337 7335 7336 0
-7524 6736 0
-7524 -7337 0
7524 -6736 7337 0
-7525 -6736 0
-7525 7337 0
7525 6736 -7337 0
-7526 -7524 0
-7526 -7525 0
7526 7524 7525 0
6735 -16953 0
-6735 16953 0
-7333 -7088 0
-7333 -7329 0
7333 7088 7329 0
-7334 -7332 0
-7334 -7333 0
7334 7332 7333 0
-7521 6735 0
-7521 -7334 0
7521 -6735 7334 0
-7522 -6735 0
-7522 7334 0
7522 6735 -7334 0
-7523 -7521 0
-7523 -7522 0
7523 7521 7522 0
6734 -16952 0
-6734 16952 0
-7330 -7081 0
-7330 -7326 0
7330 7081 7326 0
-7331 -7329 0
-7331 -7330 0
7331 7329 7330 0
-7518 6734 0
-7518 -7331 0
7518 -6734 7331 0
-7519 -6734 0
-7519 7331 0
7519 6734 -7331 0
-7520 -7518 0
-7520 -7519 0
7520 7518 7519 0
6733 -16951 0
-6733 16951 0
-7327 -7074 0
-7327 -7323 0
7327 7074 7323 0
-7328 -7326 0
-7328 -7327 0
7328 7326 7327 0
-7515 6733 0
-7515 -7328 0
7515 -6733 7328 0
-7516 -6733 0
-7516 7328 0
7516 6733 -7328 0
-7517 -7515 0
-7517 -7516 0
7517 7515 7516 0
6732 -16950 0
-6732 16950 0
-7324 -7067 0
-7324 -7320 0
7324 7067 7320 0
-7325 -7323 0
-7325 -7324 0
7325 7323 7324 0
-7512 6732 0
-7512 -7325 0
7512 -6732 7325 0
-7513 -6732 0
-7513 7325 0
7513 6732 -7325 0
-7514 -7512 0
-7514 -7513 0
7514 7512 7513 0
6731 -16949 0
-6731 16949 0
-7321 -7060 0
-7321 -7317 0
7321 7060 7317 0
-7322 -7320 0
-7322 -7321 0
7322 7320 7321 0
-7509 6731 0
-7509 -7322 0
7509 -6731 7322 0
-7510 -6731 0
-7510 7322 0
7510 6731 -7322 0
-7511 -7509 0
-7511 -7510 0
7511 7509 7510 0
6730 -16948 0
-6730 16948 0
-7318 -7053 0
-7318 -7314 0
7318 7053 7314 0
-7319 -7317 0
-7319 -7318 0
7319 7317 7318 0
-7506 6730 0
-7506 -7319 0
7506 -6730 7319 0
-7507 -6730 0
-7507 7319 0
7507 6730 -7319 0
-7508 -7506 0
-7508 -7507 0
7508 7506 7507 0
6729 -16947 0
-6729 16947 0
-7315 -7046 0
-7315 -7311 0
7315 7046 7311 0
-7316 -7314 0
-7316 -7315 0
7316 7314 7315 0
-7503 6729 0
-7503 -7316 0
7503 -6729 7316 0
-7504 -6729 0
-7504 7316 0
7504 6729 -7316 0
-7505 -7503 0
-7505 -7504 0
7505 7503 7504 0
6728 -16946 0
-6728 16946 0
-7312 -7039 0
-7312 -7308 0
7312 7039 7308 0
-7313 -7311 0
-7313 -7312 0
7313 7311 7312 0
-7500 6728 0
-7500 -7313 0
7500 -6728 7313 0
-7501 -6728 0
-7501 7313 0
7501 6728 -7313 0
-7502 -7500 0
-7502 -7501 0
7502 7500 7501 0
6727 -16945 0
-6727 16945 0
-7309 -7032 0
-7309 -7305 0
7309 7032 7305 0
-7310 -7308 0
-7310 -7309 0
7310 7308 7309 0
-7497 6727 0
-7497 -7310 0
7497 -6727 7310 0
-7498 -6727 0
-7498 7310 0
7498 6727 -7310 0
-7499 -7497 0
-7499 -7498 0
7499 7497 7498 0
6726 -16944 0
-6726 16944 0
-7306 -7025 0
-7306 -7302 0
7306 7025 7302 0
-7307 -7305 0
-7307 -7306 0
7307 7305 7306 0
-7494 6726 0
-7494 -7307 0
7494 -6726 7307 0
-7495 -6726 0
-7495 7307 0
7495 6726 -7307 0
-7496 -7494 0
-7496 -7495 0
7496 7494 7495 0
6725 -16943 0
-6725 16943 0
-7303 -7018 0
-7303 -7299 0
7303 7018 7299 0
-7304 -7302 0
-7304 -7303 0
7304 7302 7303 0
-7491 6725 0
-7491 -7304 0
7491 -6725 7304 0
-7492 -6725 0
-7492 7304 0
7492 6725 -7304 0
-7493 -7491 0
-7493 -7492 0
7493 7491 7492 0
6724 -16942 0
-6724 16942 0
-7300 -7011 0
-7300 -7296 0
7300 7011 7296 0
-7301 -7299 0
-7301 -7300 0
7301 7299 7300 0
-7488 6724 0
-7488 -7301 0
7488 -6724 7301 0
-7489 -6724 0
-7489 7301 0
7489 6724 -7301 0
-7490 -7488 0
-7490 -7489 0
7490 7488 7489 0
6723 -16941 0
-6723 16941 0
-7297 -7004 0
-7297 -7293 0
7297 7004 7293 0
-7298 -7296 0
-7298 -7297 0
7298 7296 7297 0
-7485 6723 0
-7485 -7298 0
7485 -6723 7298 0
-7486 -6723 0
-7486 7298 0
7486 6723 -7298 0
-7487 -7485 0
-7487 -7486 0
7487 7485 7486 0
6722 -16940 0
-6722 16940 0
-7294 -6997 0
-7294 -7290 0
7294 6997 7290 0
-7295 -7293 0
-7295 -7294 0
7295 7293 7294 0
-7482 6722 0
-7482 -7295 0
7482 -6722 7295 0
-7483 -6722 0
-7483 7295 0
7483 6722 -7295 0
-7484 -7482 0
-7484 -7483 0
7484 7482 7483 0
6721 -16939 0
-6721 16939 0
-7291 -6990 0
-7291 -7287 0
7291 6990 7287 0
-7292 -7290 0
-7292 -7291 0
7292 7290 7291 0
-7479 6721 0
-7479 -7292 0
7479 -6721 7292 0
-7480 -6721 0
-7480 7292 0
7480 6721 -7292 0
-7481 -7479 0
-7481 -7480 0
7481 7479 7480 0
6720 -16938 0
-6720 16938 0
-7288 -6983 0
-7288 -7284 0
7288 6983 7284 0
-7289 -7287 0
-7289 -7288 0
7289 7287 7288 0
-7476 6720 0
-7476 -7289 0
7476 -6720 7289 0
-7477 -6720 0
-7477 7289 0
7477 6720 -7289 0
-7478 -7476 0
-7478 -7477 0
7478 7476 7477 0
6719 -16937 0
-6719 16937 0
-7285 -6976 0
-7285 -7281 0
7285 6976 7281 0
-7286 -7284 0
-7286 -7285 0
7286 7284 7285 0
-7473 6719 0
-7473 -7286 0
7473 -6719 7286 0
-7474 -6719 0
-7474 7286 0
7474 6719 -7286 0
-7475 -7473 0
-7475 -7474 0
7475 7473 7474 0
6718 -16936 0
-6718 16936 0
-7282 -6969 0
-7282 -7278 0
7282 6969 7278 0
-7283 -7281 0
-7283 -7282 0
7283 7281 7282 0
-7470 6718 0
-7470 -7283 0
7470 -6718 7283 0
-7471 -6718 0
-7471 7283 0
7471 6718 -7283 0
-7472 -7470 0
-7472 -7471 0
7472 7470 7471 0
6717 -16935 0
-6717 16935 0
-7279 -6962 0
-7279 -7275 0
7279 6962 7275 0
-7280 -7278 0
-7280 -7279 0
7280 7278 7279 0
-7467 6717 0
-7467 -7280 0
7467 -6717 7280 0
-7468 -6717 0
-7468 7280 0
7468 6717 -7280 0
-7469 -7467 0
-7469 -7468 0
7469 7467 7468 0
6716 -16934 0
-6716 16934 0
-7276 -6955 0
-7276 -7272 0
7276 6955 7272 0
-7277 -7275 0
-7277 -7276 0
7277 7275 7276 0
-7464 6716 0
-7464 -7277 0
7464 -6716 7277 0
-7465 -6716 0
-7465 7277 0
7465 6716 -7277 0
-7466 -7464 0
-7466 -7465 0
7466 7464 7465 0
6715 -16933 0
-6715 16933 0
-7273 -6948 0
-7273 -7269 0
7273 6948 7269 0
-7274 -7272 0
-7274 -7273 0
7274 7272 7273 0
-7461 6715 0
-7461 -7274 0
7461 -6715 7274 0
-7462 -6715 0
-7462 7274 0
7462 6715 -7274 0
-7463 -7461 0
-7463 -7462 0
7463 7461 7462 0
6714 -16932 0
-6714 16932 0
-7270 -6941 0
-7270 -7266 0
7270 6941 7266 0
-7271 -7269 0
-7271 -7270 0
7271 7269 7270 0
-7458 6714 0
-7458 -7271 0
7458 -6714 7271 0
-7459 -6714 0
-7459 7271 0
7459 6714 -7271 0
-7460 -7458 0
-7460 -7459 0
7460 7458 7459 0
6713 -16931 0
-6713 16931 0
-7267 -6934 0
-7267 -7263 0
7267 6934 7263 0
-7268 -7266 0
-7268 -7267 0
7268 7266 7267 0
-7455 6713 0
-7455 -7268 0
7455 -6713 7268 0
-7456 -6713 0
-7456 7268 0
7456 6713 -7268 0
-7457 -7455 0
-7457 -7456 0
7457 7455 7456 0
6712 -16930 0
-6712 16930 0
-7264 -6927 0
-7264 -7260 0
7264 6927 7260 0
-7265 -7263 0
-7265 -7264 0
7265 7263 7264 0
-7452 6712 0
-7452 -7265 0
7452 -6712 7265 0
-7453 -6712 0
-7453 7265 0
7453 6712 -7265 0
-7454 -7452 0
-7454 -7453 0
7454 7452 7453 0
6711 -16929 0
-6711 16929 0
-7261 -6920 0
-7261 -7257 0
7261 6920 7257 0
-7262 -7260 0
-7262 -7261 0
7262 7260 7261 0
-7449 6711 0
-7449 -7262 0
7449 -6711 7262 0
-7450 -6711 0
-7450 7262 0
7450 6711 -7262 0
-7451 -7449 0
-7451 -7450 0
7451 7449 7450 0
6710 -16928 0
-6710 16928 0
-7258 -6913 0
-7258 -7254 0
7258 6913 7254 0
-7259 -7257 0
-7259 -7258 0
7259 7257 7258 0
-7446 6710 0
-7446 -7259 0
7446 -6710 7259 0
-7447 -6710 0
-7447 7259 0
7447 6710 -7259 0
-7448 -7446 0
-7448 -7447 0
7448 7446 7447 0
6709 -16927 0
-6709 16927 0
-7255 -6906 0
-7255 -7251 0
7255 6906 7251 0
-7256 -7254 0
-7256 -7255 0
7256 7254 7255 0
-7443 6709 0
-7443 -7256 0
7443 -6709 7256 0
-7444 -6709 0
-7444 7256 0
7444 6709 -7256 0
-7445 -7443 0
-7445 -7444 0
7445 7443 7444 0
6708 -16926 0
-6708 16926 0
-7252 -6899 0
-7252 -7248 0
7252 6899 7248 0
-7253 -7251 0
-7253 -7252 0
7253 7251 7252 0
-7440 6708 0
-7440 -7253 0
7440 -6708 7253 0
-7441 -6708 0
-7441 7253 0
7441 6708 -7253 0
-7442 -7440 0
-7442 -7441 0
7442 7440 7441 0
6707 -16925 0
-6707 16925 0
-7249 -6892 0
-7249 -7245 0
7249 6892 7245 0
-7250 -7248 0
-7250 -7249 0
7250 7248 7249 0
-7437 6707 0
-7437 -7250 0
7437 -6707 7250 0
-7438 -6707 0
-7438 7250 0
7438 6707 -7250 0
-7439 -7437 0
-7439 -7438 0
7439 7437 7438 0
6706 -16924 0
-6706 16924 0
-7246 -6885 0
-7246 -7242 0
7246 6885 7242 0
-7247 -7245 0
-7247 -7246 0
7247 7245 7246 0
-7434 6706 0
-7434 -7247 0
7434 -6706 7247 0
-7435 -6706 0
-7435 7247 0
7435 6706 -7247 0
-7436 -7434 0
-7436 -7435 0
7436 7434 7435 0
6705 -16923 0
-6705 16923 0
-7243 -6878 0
-7243 -7239 0
7243 6878 7239 0
-7244 -7242 0
-7244 -7243 0
7244 7242 7243 0
-7431 6705 0
-7431 -7244 0
7431 -6705 7244 0
-7432 -6705 0
-7432 7244 0
7432 6705 -7244 0
-7433 -7431 0
-7433 -7432 0
7433 7431 7432 0
6704 -16922 0
-6704 16922 0
-7240 -6871 0
-7240 -7236 0
7240 6871 7236 0
-7241 -7239 0
-7241 -7240 0
7241 7239 7240 0
-7428 6704 0
-7428 -7241 0
7428 -6704 7241 0
-7429 -6704 0
-7429 7241 0
7429 6704 -7241 0
-7430 -7428 0
-7430 -7429 0
7430 7428 7429 0
6703 -16921 0
-6703 16921 0
-7237 -6864 0
-7237 -7233 0
7237 6864 7233 0
-7238 -7236 0
-7238 -7237 0
7238 7236 7237 0
-7425 6703 0
-7425 -7238 0
7425 -6703 7238 0
-7426 -6703 0
-7426 7238 0
7426 6703 -7238 0
-7427 -7425 0
-7427 -7426 0
7427 7425 7426 0
6702 -16920 0
-6702 16920 0
-7234 -6857 0
-7234 -7230 0
7234 6857 7230 0
-7235 -7233 0
-7235 -7234 0
7235 7233 7234 0
-7422 6702 0
-7422 -7235 0
7422 -6702 7235 0
-7423 -6702 0
-7423 7235 0
7423 6702 -7235 0
-7424 -7422 0
-7424 -7423 0
7424 7422 7423 0
6701 -16919 0
-6701 16919 0
-7231 -6850 0
-7231 -7227 0
7231 6850 7227 0
-7232 -7230 0
-7232 -7231 0
7232 7230 7231 0
-7419 6701 0
-7419 -7232 0
7419 -6701 7232 0
-7420 -6701 0
-7420 7232 0
7420 6701 -7232 0
-7421 -7419 0
-7421 -7420 0
7421 7419 7420 0
6700 -16918 0
-6700 16918 0
-7228 -6843 0
-7228 -7224 0
7228 6843 7224 0
-7229 -7227 0
-7229 -7228 0
7229 7227 7228 0
-7416 6700 0
-7416 -7229 0
7416 -6700 7229 0
-7417 -6700 0
-7417 7229 0
7417 6700 -7229 0
-7418 -7416 0
-7418 -7417 0
7418 7416 7417 0
6699 -16917 0
-6699 16917 0
-7225 -6836 0
-7225 -7221 0
7225 6836 7221 0
-7226 -7224 0
-7226 -7225 0
7226 7224 7225 0
-7413 6699 0
-7413 -7226 0
7413 -6699 7226 0
-7414 -6699 0
-7414 7226 0
7414 6699 -7226 0
-7415 -7413 0
-7415 -7414 0
7415 7413 7414 0
6698 -16916 0
-6698 16916 0
-7222 -6829 0
-7222 -7218 0
7222 6829 7218 0
-7223 -7221 0
-7223 -7222 0
7223 7221 7222 0
-7410 6698 0
-7410 -7223 0
7410 -6698 7223 0
-7411 -6698 0
-7411 7223 0
7411 6698 -7223 0
-7412 -7410 0
-7412 -7411 0
7412 7410 7411 0
6697 -16915 0
-6697 16915 0
-7219 -6822 0
-7219 -7215 0
7219 6822 7215 0
-7220 -7218 0
-7220 -7219 0
7220 7218 7219 0
-7407 6697 0
-7407 -7220 0
7407 -6697 7220 0
-7408 -6697 0
-7408 7220 0
7408 6697 -7220 0
-7409 -7407 0
-7409 -7408 0
7409 7407 7408 0
6696 -16914 0
-6696 16914 0
-7216 -6815 0
-7216 -7212 0
7216 6815 7212 0
-7217 -7215 0
-7217 -7216 0
7217 7215 7216 0
-7404 6696 0
-7404 -7217 0
7404 -6696 7217 0
-7405 -6696 0
-7405 7217 0
7405 6696 -7217 0
-7406 -7404 0
-7406 -7405 0
7406 7404 7405 0
6695 -16913 0
-6695 16913 0
-7213 -6808 0
-7213 -7209 0
7213 6808 7209 0
-7214 -7212 0
-7214 -7213 0
7214 7212 7213 0
-7401 6695 0
-7401 -7214 0
7401 -6695 7214 0
-7402 -6695 0
-7402 7214 0
7402 6695 -7214 0
-7403 -7401 0
-7403 -7402 0
7403 7401 7402 0
6694 -16912 0
-6694 16912 0
-7210 -6801 0
-7210 -7206 0
7210 6801 7206 0
-7211 -7209 0
-7211 -7210 0
7211 7209 7210 0
-7398 6694 0
-7398 -7211 0
7398 -6694 7211 0
-7399 -6694 0
-7399 7211 0
7399 6694 -7211 0
-7400 -7398 0
-7400 -7399 0
7400 7398 7399 0
6693 -16911 0
-6693 16911 0
-7207 -6794 0
-7207 -7203 0
7207 6794 7203 0
-7208 -7206 0
-7208 -7207 0
7208 7206 7207 0
-7395 6693 0
-7395 -7208 0
7395 -6693 7208 0
-7396 -6693 0
-7396 7208 0
7396 6693 -7208 0
-7397 -7395 0
-7397 -7396 0
7397 7395 7396 0
6692 -16910 0
-6692 16910 0
-7204 -6787 0
-7204 -7200 0
7204 6787 7200 0
-7205 -7203 0
-7205 -7204 0
7205 7203 7204 0
-7392 6692 0
-7392 -7205 0
7392 -6692 7205 0
-7393 -6692 0
-7393 7205 0
7393 6692 -7205 0
-7394 -7392 0
-7394 -7393 0
7394 7392 7393 0
6691 -16909 0
-6691 16909 0
-7201 -6780 0
-7201 -7197 0
7201 6780 7197 0
-7202 -7200 0
-7202 -7201 0
7202 7200 7201 0
-7389 6691 0
-7389 -7202 0
7389 -6691 7202 0
-7390 -6691 0
-7390 7202 0
7390 6691 -7202 0
-7391 -7389 0
-7391 -7390 0
7391 7389 7390 0
6690 -16908 0
-6690 16908 0
-7198 -6773 0
-7198 -7194 0
7198 6773 7194 0
-7199 -7197 0
-7199 -7198 0
7199 7197 7198 0
-7386 6690 0
-7386 -7199 0
7386 -6690 7199 0
-7387 -6690 0
-7387 7199 0
7387 6690 -7199 0
-7388 -7386 0
-7388 -7387 0
7388 7386 7387 0
6689 -16907 0
-6689 16907 0
-7195 -6766 0
-7195 -7191 0
7195 6766 7191 0
-7196 -7194 0
-7196 -7195 0
7196 7194 7195 0
-7383 6689 0
-7383 -7196 0
7383 -6689 7196 0
-7384 -6689 0
-7384 7196 0
7384 6689 -7196 0
-7385 -7383 0
-7385 -7384 0
7385 7383 7384 0
6687 -16905 0
-6687 16905 0
-7189 -4872 0
-7189 -6753 0
7189 4872 6753 0
-7190 -7188 0
-7190 -7189 0
7190 7188 7189 0
-7377 6687 0
-7377 -7190 0
7377 -6687 7190 0
-7378 -6687 0
-7378 7190 0
7378 6687 -7190 0
-7379 -7377 0
-7379 -7378 0
7379 7377 7378 0
6688 -16906 0
-6688 16906 0
-7192 -6759 0
-7192 -7188 0
7192 6759 7188 0
-7193 -7191 0
-7193 -7192 0
7193 7191 7192 0
-7380 6688 0
-7380 -7193 0
7380 -6688 7193 0
-7381 -6688 0
-7381 7193 0
7381 6688 -7193 0
-7382 -7380 0
-7382 -7381 0
7382 7380 7381 0
-7566 7379 0
-7566 7382 0
7566 -7379 -7382 0
-7567 7385 0
-7567 7566 0
7567 -7385 -7566 0
-7568 7388 0
-7568 7567 0
7568 -7388 -7567 0
-7569 7391 0
-7569 7568 0
7569 -7391 -7568 0
-7570 7394 0
-7570 7569 0
7570 -7394 -7569 0
-7571 7397 0
-7571 7570 0
7571 -7397 -7570 0
-7572 7400 0
-7572 7571 0
7572 -7400 -7571 0
-7573 7403 0
-7573 7572 0
7573 -7403 -7572 0
-7574 7406 0
-7574 7573 0
7574 -7406 -7573 0
-7575 7409 0
-7575 7574 0
7575 -7409 -7574 0
-7576 7412 0
-7576 7575 0
7576 -7412 -7575 0
-7577 7415 0
-7577 7576 0
7577 -7415 -7576 0
-7578 7418 0
-7578 7577 0
7578 -7418 -7577 0
-7579 7421 0
-7579 7578 0
7579 -7421 -7578 0
-7580 7424 0
-7580 7579 0
7580 -7424 -7579 0
-7581 7427 0
-7581 7580 0
7581 -7427 -7580 0
-7582 7430 0
-7582 7581 0
7582 -7430 -7581 0
-7583 7433 0
-7583 7582 0
7583 -7433 -7582 0
-7584 7436 0
-7584 7583 0
7584 -7436 -7583 0
-7585 7439 0
-7585 7584 0
7585 -7439 -7584 0
-7586 7442 0
-7586 7585 0
7586 -7442 -7585 0
-7587 7445 0
-7587 7586 0
7587 -7445 -7586 0
-7588 7448 0
-7588 7587 0
7588 -7448 -7587 0
-7589 7451 0
-7589 7588 0
7589 -7451 -7588 0
-7590 7454 0
-7590 7589 0
7590 -7454 -7589 0
-7591 7457 0
-7591 7590 0
7591 -7457 -7590 0
-7592 7460 0
-7592 7591 0
7592 -7460 -7591 0
-7593 7463 0
-7593 7592 0
7593 -7463 -7592 0
-7594 7466 0
-7594 7593 0
7594 -7466 -7593 0
-7595 7469 0
-7595 7594 0
7595 -7469 -7594 0
-7596 7472 0
-7596 7595 0
7596 -7472 -7595 0
-7597 7475 0
-7597 7596 0
7597 -7475 -7596 0
-7598 7478 0
-7598 7597 0
7598 -7478 -7597 0
-7599 7481 0
-7599 7598 0
7599 -7481 -7598 0
-7600 7484 0
-7600 7599 0
7600 -7484 -7599 0
-7601 7487 0
-7601 7600 0
7601 -7487 -7600 0
-7602 7490 0
-7602 7601 0
7602 -7490 -7601 0
-7603 7493 0
-7603 7602 0
7603 -7493 -7602 0
-7604 7496 0
-7604 7603 0
7604 -7496 -7603 0
-7605 7499 0
-7605 7604 0
7605 -7499 -7604 0
-7606 7502 0
-7606 7605 0
7606 -7502 -7605 0
-7607 7505 0
-7607 7606 0
7607 -7505 -7606 0
-7608 7508 0
-7608 7607 0
7608 -7508 -7607 0
-7609 7511 0
-7609 7608 0
7609 -7511 -7608 0
-7610 7514 0
-7610 7609 0
7610 -7514 -7609 0
-7611 7517 0
-7611 7610 0
7611 -7517 -7610 0
-7612 7520 0
-7612 7611 0
7612 -7520 -7611 0
-7613 7523 0
-7613 7612 0
7613 -7523 -7612 0
-7614 7526 0
-7614 7613 0
7614 -7526 -7613 0
-7615 7529 0
-7615 7614 0
7615 -7529 -7614 0
-7616 7532 0
-7616 7615 0
7616 -7532 -7615 0
-7617 7535 0
-7617 7616 0
7617 -7535 -7616 0
-7618 7538 0
-7618 7617 0
7618 -7538 -7617 0
-7619 7541 0
-7619 7618 0
7619 -7541 -7618 0
-7620 7544 0
-7620 7619 0
7620 -7544 -7619 0
-7621 7547 0
-7621 7620 0
7621 -7547 -7620 0
-7622 7550 0
-7622 7621 0
7622 -7550 -7621 0
-7623 7553 0
-7623 7622 0
7623 -7553 -7622 0
-7624 7556 0
-7624 7623 0
7624 -7556 -7623 0
-7625 7559 0
-7625 7624 0
7625 -7559 -7624 0
-7626 7562 0
-7626 7625 0
7626 -7562 -7625 0
-7627 7565 0
-7627 7626 0
7627 -7565 -7626 0
-7628 -6750 0
-7628 7627 0
7628 6750 -7627 0
-7629 6081 0
-7629 -7628 0
7629 -6081 7628 0
-7630 6686 0
-7630 -7629 0
7630 -6686 7629 0
-7817 -6186 0
-7817 6749 0
7817 6186 -6749 0
-7818 6186 0
-7818 -6749 0
7818 -6186 6749 0
-7819 -7817 0
-7819 -7818 0
7819 7817 7818 0
-7814 -6185 0
-7814 6748 0
7814 6185 -6748 0
-7815 6185 0
-7815 -6748 0
7815 -6185 6748 0
-7816 -7814 0
-7816 -7815 0
7816 7814 7815 0
-7811 -6184 0
-7811 6747 0
7811 6184 -6747 0
-7812 6184 0
-7812 -6747 0
7812 -6184 6747 0
-7813 -7811 0
-7813 -7812 0
7813 7811 7812 0
-7808 -6183 0
-7808 6746 0
7808 6183 -6746 0
-7809 6183 0
-7809 -6746 0
7809 -6183 6746 0
-7810 -7808 0
-7810 -7809 0
7810 7808 7809 0
-7805 -6182 0
-7805 6745 0
7805 6182 -6745 0
-7806 6182 0
-7806 -6745 0
7806 -6182 6745 0
-7807 -7805 0
-7807 -7806 0
7807 7805 7806 0
-7802 -6181 0
-7802 6744 0
7802 6181 -6744 0
-7803 6181 0
-7803 -6744 0
7803 -6181 6744 0
-7804 -7802 0
-7804 -7803 0
7804 7802 7803 0
-7799 -6180 0
-7799 6743 0
7799 6180 -6743 0
-7800 6180 0
-7800 -6743 0
7800 -6180 6743 0
-7801 -7799 0
-7801 -7800 0
7801 7799 7800 0
-7796 -6179 0
-7796 6742 0
7796 6179 -6742 0
-7797 6179 0
-7797 -6742 0
7797 -6179 6742 0
-7798 -7796 0
-7798 -7797 0
7798 7796 7797 0
-7793 -6178 0
-7793 6741 0
7793 6178 -6741 0
-7794 6178 0
-7794 -6741 0
7794 -6178 6741 0
-7795 -7793 0
-7795 -7794 0
7795 7793 7794 0
-7790 -6177 0
-7790 6740 0
7790 6177 -6740 0
-7791 6177 0
-7791 -6740 0
7791 -6177 6740 0
-7792 -7790 0
-7792 -7791 0
7792 7790 7791 0
-7787 -6176 0
-7787 6739 0
7787 6176 -6739 0
-7788 6176 0
-7788 -6739 0
7788 -6176 6739 0
-7789 -7787 0
-7789 -7788 0
7789 7787 7788 0
-7784 -6175 0
-7784 6738 0
7784 6175 -6738 0
-7785 6175 0
-7785 -6738 0
7785 -6175 6738 0
-7786 -7784 0
-7786 -7785 0
7786 7784 7785 0
-7781 -6174 0
-7781 6737 0
7781 6174 -6737 0
-7782 6174 0
-7782 -6737 0
7782 -6174 6737 0
-7783 -7781 0
-7783 -7782 0
7783 7781 7782 0
-7778 -6173 0
-7778 6736 0
7778 6173 -6736 0
-7779 6173 0
-7779 -6736 0
7779 -6173 6736 0
-7780 -7778 0
-7780 -7779 0
7780 7778 7779 0
-7775 -6172 0
-7775 6735 0
7775 6172 -6735 0
-7776 6172 0
-7776 -6735 0
7776 -6172 6735 0
-7777 -7775 0
-7777 -7776 0
7777 7775 7776 0
-7772 -6171 0
-7772 6734 0
7772 6171 -6734 0
-7773 6171 0
-7773 -6734 0
7773 -6171 6734 0
-7774 -7772 0
-7774 -7773 0
7774 7772 7773 0
-7769 -6170 0
-7769 6733 0
7769 6170 -6733 0
-7770 6170 0
-7770 -6733 0
7770 -6170 6733 0
-7771 -7769 0
-7771 -7770 0
7771 7769 7770 0
-7766 -6169 0
-7766 6732 0
7766 6169 -6732 0
-7767 6169 0
-7767 -6732 0
7767 -6169 6732 0
-7768 -7766 0
-7768 -7767 0
7768 7766 7767 0
-7763 -6168 0
-7763 6731 0
7763 6168 -6731 0
-7764 6168 0
-7764 -6731 0
7764 -6168 6731 0
-7765 -7763 0
-7765 -7764 0
7765 7763 7764 0
-7760 -6167 0
-7760 6730 0
7760 6167 -6730 0
-7761 6167 0
-7761 -6730 0
7761 -6167 6730 0
-7762 -7760 0
-7762 -7761 0
7762 7760 7761 0
-7757 -6166 0
-7757 6729 0
7757 6166 -6729 0
-7758 6166 0
-7758 -6729 0
7758 -6166 6729 0
-7759 -7757 0
-7759 -7758 0
7759 7757 7758 0
-7754 -6165 0
-7754 6728 0
7754 6165 -6728 0
-7755 6165 0
-7755 -6728 0
7755 -6165 6728 0
-7756 -7754 0
-7756 -7755 0
7756 7754 7755 0
-7751 -6164 0
-7751 6727 0
7751 6164 -6727 0
-7752 6164 0
-7752 -6727 0
7752 -6164 6727 0
-7753 -7751 0
-7753 -7752 0
7753 7751 7752 0
-7748 -6163 0
-7748 6726 0
7748 6163 -6726 0
-7749 6163 0
-7749 -6726 0
7749 -6163 6726 0
-7750 -7748 0
-7750 -7749 0
7750 7748 7749 0
-7745 -6162 0
-7745 6725 0
7745 6162 -6725 0
-7746 6162 0
-7746 -6725 0
7746 -6162 6725 0
-7747 -7745 0
-7747 -7746 0
7747 7745 7746 0
-7742 -6161 0
-7742 6724 0
7742 6161 -6724 0
-7743 6161 0
-7743 -6724 0
7743 -6161 6724 0
-7744 -7742 0
-7744 -7743 0
7744 7742 7743 0
-7739 -6160 0
-7739 6723 0
7739 6160 -6723 0
-7740 6160 0
-7740 -6723 0
7740 -6160 6723 0
-7741 -7739 0
-7741 -7740 0
7741 7739 7740 0
-7736 -6159 0
-7736 6722 0
7736 6159 -6722 0
-7737 6159 0
-7737 -6722 0
7737 -6159 6722 0
-7738 -7736 0
-7738 -7737 0
7738 7736 7737 0
-7733 -6158 0
-7733 6721 0
7733 6158 -6721 0
-7734 6158 0
-7734 -6721 0
7734 -6158 6721 0
-7735 -7733 0
-7735 -7734 0
7735 7733 7734 0
-7730 -6157 0
-7730 6720 0
7730 6157 -6720 0
-7731 6157 0
-7731 -6720 0
7731 -6157 6720 0
-7732 -7730 0
-7732 -7731 0
7732 7730 7731 0
-7727 -6156 0
-7727 6719 0
7727 6156 -6719 0
-7728 6156 0
-7728 -6719 0
7728 -6156 6719 0
-7729 -7727 0
-7729 -7728 0
7729 7727 7728 0
-7724 -6155 0
-7724 6718 0
7724 6155 -6718 0
-7725 6155 0
-7725 -6718 0
7725 -6155 6718 0
-7726 -7724 0
-7726 -7725 0
7726 7724 7725 0
-7721 -6154 0
-7721 6717 0
7721 6154 -6717 0
-7722 6154 0
-7722 -6717 0
7722 -6154 6717 0
-7723 -7721 0
-7723 -7722 0
7723 7721 7722 0
-7718 -6153 0
-7718 6716 0
7718 6153 -6716 0
-7719 6153 0
-7719 -6716 0
7719 -6153 6716 0
-7720 -7718 0
-7720 -7719 0
7720 7718 7719 0
-7715 -6152 0
-7715 6715 0
7715 6152 -6715 0
-7716 6152 0
-7716 -6715 0
7716 -6152 6715 0
-7717 -7715 0
-7717 -7716 0
7717 7715 7716 0
-7712 -6151 0
-7712 6714 0
7712 6151 -6714 0
-7713 6151 0
-7713 -6714 0
7713 -6151 6714 0
-7714 -7712 0
-7714 -7713 0
7714 7712 7713 0
-7709 -6150 0
-7709 6713 0
7709 6150 -6713 0
-7710 6150 0
-7710 -6713 0
7710 -6150 6713 0
-7711 -7709 0
-7711 -7710 0
7711 7709 7710 0
-7706 -6149 0
-7706 6712 0
7706 6149 -6712 0
-7707 6149 0
-7707 -6712 0
7707 -6149 6712 0
-7708 -7706 0
-7708 -7707 0
7708 7706 7707 0
-7703 -6148 0
-7703 6711 0
7703 6148 -6711 0
-7704 6148 0
-7704 -6711 0
7704 -6148 6711 0
-7705 -7703 0
-7705 -7704 0
7705 7703 7704 0
-7700 -6147 0
-7700 6710 0
7700 6147 -6710 0
-7701 6147 0
-7701 -6710 0
7701 -6147 6710 0
-7702 -7700 0
-7702 -7701 0
7702 7700 7701 0
-7697 -6146 0
-7697 6709 0
7697 6146 -6709 0
-7698 6146 0
-7698 -6709 0
7698 -6146 6709 0
-7699 -7697 0
-7699 -7698 0
7699 7697 7698 0
-7694 -6145 0
-7694 6708 0
7694 6145 -6708 0
-7695 6145 0
-7695 -6708 0
7695 -6145 6708 0
-7696 -7694 0
-7696 -7695 0
7696 7694 7695 0
-7691 -6144 0
-7691 6707 0
7691 6144 -6707 0
-7692 6144 0
-7692 -6707 0
7692 -6144 6707 0
-7693 -7691 0
-7693 -7692 0
7693 7691 7692 0
-7688 -6143 0
-7688 6706 0
7688 6143 -6706 0
-7689 6143 0
-7689 -6706 0
7689 -6143 6706 0
-7690 -7688 0
-7690 -7689 0
7690 7688 7689 0
-7685 -6142 0
-7685 6705 0
7685 6142 -6705 0
-7686 6142 0
-7686 -6705 0
7686 -6142 6705 0
-7687 -7685 0
-7687 -7686 0
7687 7685 7686 0
-7682 -6141 0
-7682 6704 0
7682 6141 -6704 0
-7683 6141 0
-7683 -6704 0
7683 -6141 6704 0
-7684 -7682 0
-7684 -7683 0
7684 7682 7683 0
-7679 -6140 0
-7679 6703 0
7679 6140 -6703 0
-7680 6140 0
-7680 -6703 0
7680 -6140 6703 0
-7681 -7679 0
-7681 -7680 0
7681 7679 7680 0
-7676 -6139 0
-7676 6702 0
7676 6139 -6702 0
-7677 6139 0
-7677 -6702 0
7677 -6139 6702 0
-7678 -7676 0
-7678 -7677 0
7678 7676 7677 0
-7673 -6138 0
-7673 6701 0
7673 6138 -6701 0
-7674 6138 0
-7674 -6701 0
7674 -6138 6701 0
-7675 -7673 0
-7675 -7674 0
7675 7673 7674 0
-7670 -6137 0
-7670 6700 0
7670 6137 -6700 0
-7671 6137 0
-7671 -6700 0
7671 -6137 6700 0
-7672 -7670 0
-7672 -7671 0
7672 7670 7671 0
-7667 -6136 0
-7667 6699 0
7667 6136 -6699 0
-7668 6136 0
-7668 -6699 0
7668 -6136 6699 0
-7669 -7667 0
-7669 -7668 0
7669 7667 7668 0
-7664 -6135 0
-7664 6698 0
7664 6135 -6698 0
-7665 6135 0
-7665 -6698 0
7665 -6135 6698 0
-7666 -7664 0
-7666 -7665 0
7666 7664 7665 0
-7661 -6134 0
-7661 6697 0
7661 6134 -6697 0
-7662 6134 0
-7662 -6697 0
7662 -6134 6697 0
-7663 -7661 0
-7663 -7662 0
7663 7661 7662 0
-7658 -6133 0
-7658 6696 0
7658 6133 -6696 0
-7659 6133 0
-7659 -6696 0
7659 -6133 6696 0
-7660 -7658 0
-7660 -7659 0
7660 7658 7659 0
-7655 -6132 0
-7655 6695 0
7655 6132 -6695 0
-7656 6132 0
-7656 -6695 0
7656 -6132 6695 0
-7657 -7655 0
-7657 -7656 0
7657 7655 7656 0
-7652 -6131 0
-7652 6694 0
7652 6131 -6694 0
-7653 6131 0
-7653 -6694 0
7653 -6131 6694 0
-7654 -7652 0
-7654 -7653 0
7654 7652 7653 0
-7649 -6130 0
-7649 6693 0
7649 6130 -6693 0
-7650 6130 0
-7650 -6693 0
7650 -6130 6693 0
-7651 -7649 0
-7651 -7650 0
7651 7649 7650 0
-7646 -6129 0
-7646 6692 0
7646 6129 -6692 0
-7647 6129 0
-7647 -6692 0
7647 -6129 6692 0
-7648 -7646 0
-7648 -7647 0
7648 7646 7647 0
-7643 -6128 0
-7643 6691 0
7643 6128 -6691 0
-7644 6128 0
-7644 -6691 0
7644 -6128 6691 0
-7645 -7643 0
-7645 -7644 0
7645 7643 7644 0
-7640 -6127 0
-7640 6690 0
7640 6127 -6690 0
-7641 6127 0
-7641 -6690 0
7641 -6127 6690 0
-7642 -7640 0
-7642 -7641 0
7642 7640 7641 0
-7637 -6126 0
-7637 6689 0
7637 6126 -6689 0
-7638 6126 0
-7638 -6689 0
7638 -6126 6689 0
-7639 -7637 0
-7639 -7638 0
7639 7637 7638 0
-7631 -6124 0
-7631 6687 0
7631 6124 -6687 0
-7632 6124 0
-7632 -6687 0
7632 -6124 6687 0
-7633 -7631 0
-7633 -7632 0
7633 7631 7632 0
-7634 -6125 0
-7634 6688 0
7634 6125 -6688 0
-7635 6125 0
-7635 -6688 0
7635 -6125 6688 0
-7636 -7634 0
-7636 -7635 0
7636 7634 7635 0
-7820 7633 0
-7820 7636 0
7820 -7633 -7636 0
-7821 7639 0
-7821 7820 0
7821 -7639 -7820 0
-7822 7642 0
-7822 7821 0
7822 -7642 -7821 0
-7823 7645 0
-7823 7822 0
7823 -7645 -7822 0
-7824 7648 0
-7824 7823 0
7824 -7648 -7823 0
-7825 7651 0
-7825 7824 0
7825 -7651 -7824 0
-7826 7654 0
-7826 7825 0
7826 -7654 -7825 0
-7827 7657 0
-7827 7826 0
7827 -7657 -7826 0
-7828 7660 0
-7828 7827 0
7828 -7660 -7827 0
-7829 7663 0
-7829 7828 0
7829 -7663 -7828 0
-7830 7666 0
-7830 7829 0
7830 -7666 -7829 0
-7831 7669 0
-7831 7830 0
7831 -7669 -7830 0
-7832 7672 0
-7832 7831 0
7832 -7672 -7831 0
-7833 7675 0
-7833 7832 0
7833 -7675 -7832 0
-7834 7678 0
-7834 7833 0
7834 -7678 -7833 0
-7835 7681 0
-7835 7834 0
7835 -7681 -7834 0
-7836 7684 0
-7836 7835 0
7836 -7684 -7835 0
-7837 7687 0
-7837 7836 0
7837 -7687 -7836 0
-7838 7690 0
-7838 7837 0
7838 -7690 -7837 0
-7839 7693 0
-7839 7838 0
7839 -7693 -7838 0
-7840 7696 0
-7840 7839 0
7840 -7696 -7839 0
-7841 7699 0
-7841 7840 0
7841 -7699 -7840 0
-7842 7702 0
-7842 7841 0
7842 -7702 -7841 0
-7843 7705 0
-7843 7842 0
7843 -7705 -7842 0
-7844 7708 0
-7844 7843 0
7844 -7708 -7843 0
-7845 7711 0
-7845 7844 0
7845 -7711 -7844 0
-7846 7714 0
-7846 7845 0
7846 -7714 -7845 0
-7847 7717 0
-7847 7846 0
7847 -7717 -7846 0
-7848 7720 0
-7848 7847 0
7848 -7720 -7847 0
-7849 7723 0
-7849 7848 0
7849 -7723 -7848 0
-7850 7726 0
-7850 7849 0
7850 -7726 -7849 0
-7851 7729 0
-7851 7850 0
7851 -7729 -7850 0
-7852 7732 0
-7852 7851 0
7852 -7732 -7851 0
-7853 7735 0
-7853 7852 0
7853 -7735 -7852 0
-7854 7738 0
-7854 7853 0
7854 -7738 -7853 0
-7855 7741 0
-7855 7854 0
7855 -7741 -7854 0
-7856 7744 0
-7856 7855 0
7856 -7744 -7855 0
-7857 7747 0
-7857 7856 0
7857 -7747 -7856 0
-7858 7750 0
-7858 7857 0
7858 -7750 -7857 0
-7859 7753 0
-7859 7858 0
7859 -7753 -7858 0
-7860 7756 0
-7860 7859 0
7860 -7756 -7859 0
-7861 7759 0
-7861 7860 0
7861 -7759 -7860 0
-7862 7762 0
-7862 7861 0
7862 -7762 -7861 0
-7863 7765 0
-7863 7862 0
7863 -7765 -7862 0
-7864 7768 0
-7864 7863 0
7864 -7768 -7863 0
-7865 7771 0
-7865 7864 0
7865 -7771 -7864 0
-7866 7774 0
-7866 7865 0
7866 -7774 -7865 0
-7867 7777 0
-7867 7866 0
7867 -7777 -7866 0
-7868 7780 0
-7868 7867 0
7868 -7780 -7867 0
-7869 7783 0
-7869 7868 0
7869 -7783 -7868 0
-7870 7786 0
-7870 7869 0
7870 -7786 -7869 0
-7871 7789 0
-7871 7870 0
7871 -7789 -7870 0
-7872 7792 0
-7872 7871 0
7872 -7792 -7871 0
-7873 7795 0
-7873 7872 0
7873 -7795 -7872 0
-7874 7798 0
-7874 7873 0
7874 -7798 -7873 0
-7875 7801 0
-7875 7874 0
7875 -7801 -7874 0
-7876 7804 0
-7876 7875 0
7876 -7804 -7875 0
-7877 7807 0
-7877 7876 0
7877 -7807 -7876 0
-7878 7810 0
-7878 7877 0
7878 -7810 -7877 0
-7879 7813 0
-7879 7878 0
7879 -7813 -7878 0
-7880 7816 0
-7880 7879 0
7880 -7816 -7879 0
-7881 7819 0
-7881 7880 0
7881 -7819 -7880 0
-7882 -6750 0
-7882 7881 0
7882 6750 -7881 0
-7883 -6081 0
-7883 -7882 0
7883 6081 7882 0
-7884 7630 0
-7884 -7883 0
7884 -7630 7883 0
7885 -16969 0
-7885 16969 0
-7886 -5378 0
-7886 7885 0
7886 5378 -7885 0
-7887 5378 0
-7887 -7885 0
7887 -5378 7885 0
-7888 -7886 0
-7888 -7887 0
7888 7886 7887 0
-7889 4266 0
-7889 -7888 0
7889 -4266 7888 0
-7890 7884 0
-7890 -7889 0
7890 -7884 7889 0
-7891 -4310 0
-7891 7885 0
7891 4310 -7885 0
-7892 4310 0
-7892 -7885 0
7892 -4310 7885 0
-7893 -7891 0
-7893 -7892 0
7893 7891 7892 0
-7894 -4266 0
-7894 -7893 0
7894 4266 7893 0
-7895 7890 0
-7895 -7894 0
7895 -7890 7894 0
7896 -16970 0
-7896 16970 0
-7897 -7190 0
-7897 7896 0
7897 7190 -7896 0
-7898 7190 0
-7898 -7896 0
7898 -7190 7896 0
-7899 -7897 0
-7899 -7898 0
7899 7897 7898 0
-7900 6081 0
-7900 -7899 0
7900 -6081 7899 0
-7901 7895 0
-7901 -7900 0
7901 -7895 7900 0
-7902 -7885 0
-7902 7896 0
7902 7885 -7896 0
-7903 7885 0
-7903 -7896 0
7903 -7885 7896 0
-7904 -7902 0
-7904 -7903 0
7904 7902 7903 0
-7905 -6081 0
-7905 -7904 0
7905 6081 7904 0
-7906 7901 0
-7906 -7905 0
7906 -7901 7905 0
7916 -16980 0
-7916 16980 0
7915 -16979 0
-7915 16979 0
7914 -16978 0
-7914 16978 0
7913 -16977 0
-7913 16977 0
7912 -16976 0
-7912 16976 0
7911 -16975 0
-7911 16975 0
7910 -16974 0
-7910 16974 0
7909 -16973 0
-7909 16973 0
7907 -16971 0
-7907 16971 0
7908 -16972 0
-7908 16972 0
-7917 7907 0
-7917 -7908 0
7917 -7907 7908 0
-7918 -7909 0
-7918 7917 0
7918 7909 -7917 0
-7919 -7910 0
-7919 7918 0
7919 7910 -7918 0
-7920 -7911 0
-7920 7919 0
7920 7911 -7919 0
-7921 -7912 0
-7921 7920 0
7921 7912 -7920 0
-7922 -7913 0
-7922 7921 0
7922 7913 -7921 0
-7923 -7914 0
-7923 7922 0
7923 7914 -7922 0
-7924 -7915 0
-7924 7923 0
7924 7915 -7923 0
-7925 -7916 0
-7925 7924 0
7925 7916 -7924 0
-7926 7896 0
-7926 -7925 0
7926 -7896 7925 0
-7927 7906 0
-7927 -7926 0
7927 -7906 7926 0
-7928 -7907 0
-7928 -7908 0
7928 7907 7908 0
-7929 -7909 0
-7929 7928 0
7929 7909 -7928 0
-7930 -7910 0
-7930 7929 0
7930 7910 -7929 0
-7931 -7911 0
-7931 7930 0
7931 7911 -7930 0
-7932 -7912 0
-7932 7931 0
7932 7912 -7931 0
-7933 -7913 0
-7933 7932 0
7933 7913 -7932 0
-7934 -7914 0
-7934 7933 0
7934 7914 -7933 0
-7935 -7915 0
-7935 7934 0
7935 7915 -7934 0
-7936 -7916 0
-7936 7935 0
7936 7916 -7935 0
-7937 -7896 0
-7937 -7936 0
7937 7896 7936 0
-7938 7927 0
-7938 -7937 0
7938 -7927 7937 0
8001 -17043 0
-8001 17043 0
8000 -17042 0
-8000 17042 0
-8185 -7376 0
-8185 8000 0
8185 7376 -8000 0
-8186 7376 0
-8186 -8000 0
8186 -7376 8000 0
-8187 -8185 0
-8187 -8186 0
8187 8185 8186 0
7999 -17041 0
-7999 17041 0
-8182 -7373 0
-8182 7999 0
8182 7373 -7999 0
-8183 7373 0
-8183 -7999 0
8183 -7373 7999 0
-8184 -8182 0
-8184 -8183 0
8184 8182 8183 0
7998 -17040 0
-7998 17040 0
-8179 -7370 0
-8179 7998 0
8179 7370 -7998 0
-8180 7370 0
-8180 -7998 0
8180 -7370 7998 0
-8181 -8179 0
-8181 -8180 0
8181 8179 8180 0
7997 -17039 0
-7997 17039 0
-8176 -7367 0
-8176 7997 0
8176 7367 -7997 0
-8177 7367 0
-8177 -7997 0
8177 -7367 7997 0
-8178 -8176 0
-8178 -8177 0
8178 8176 8177 0
7996 -17038 0
-7996 17038 0
-8173 -7364 0
-8173 7996 0
8173 7364 -7996 0
-8174 7364 0
-8174 -7996 0
8174 -7364 7996 0
-8175 -8173 0
-8175 -8174 0
8175 8173 8174 0
7995 -17037 0
-7995 17037 0
-8170 -7361 0
-8170 7995 0
8170 7361 -7995 0
-8171 7361 0
-8171 -7995 0
8171 -7361 7995 0
-8172 -8170 0
-8172 -8171 0
8172 8170 8171 0
7994 -17036 0
-7994 17036 0
-8167 -7358 0
-8167 7994 0
8167 7358 -7994 0
-8168 7358 0
-8168 -7994 0
8168 -7358 7994 0
-8169 -8167 0
-8169 -8168 0
8169 8167 8168 0
7993 -17035 0
-7993 17035 0
-8164 -7355 0
-8164 7993 0
8164 7355 -7993 0
-8165 7355 0
-8165 -7993 0
8165 -7355 7993 0
-8166 -8164 0
-8166 -8165 0
8166 8164 8165 0
7992 -17034 0
-7992 17034 0
-8161 -7352 0
-8161 7992 0
8161 7352 -7992 0
-8162 7352 0
-8162 -7992 0
8162 -7352 7992 0
-8163 -8161 0
-8163 -8162 0
8163 8161 8162 0
7991 -17033 0
-7991 17033 0
-8158 -7349 0
-8158 7991 0
8158 7349 -7991 0
-8159 7349 0
-8159 -7991 0
8159 -7349 7991 0
-8160 -8158 0
-8160 -8159 0
8160 8158 8159 0
7990 -17032 0
-7990 17032 0
-8155 -7346 0
-8155 7990 0
8155 7346 -7990 0
-8156 7346 0
-8156 -7990 0
8156 -7346 7990 0
-8157 -8155 0
-8157 -8156 0
8157 8155 8156 0
7989 -17031 0
-7989 17031 0
-8152 -7343 0
-8152 7989 0
8152 7343 -7989 0
-8153 7343 0
-8153 -7989 0
8153 -7343 7989 0
-8154 -8152 0
-8154 -8153 0
8154 8152 8153 0
7988 -17030 0
-7988 17030 0
-8149 -7340 0
-8149 7988 0
8149 7340 -7988 0
-8150 7340 0
-8150 -7988 0
8150 -7340 7988 0
-8151 -8149 0
-8151 -8150 0
8151 8149 8150 0
7987 -17029 0
-7987 17029 0
-8146 -7337 0
-8146 7987 0
8146 7337 -7987 0
-8147 7337 0
-8147 -7987 0
8147 -7337 7987 0
-8148 -8146 0
-8148 -8147 0
8148 8146 8147 0
7986 -17028 0
-7986 17028 0
-8143 -7334 0
-8143 7986 0
8143 7334 -7986 0
-8144 7334 0
-8144 -7986 0
8144 -7334 7986 0
-8145 -8143 0
-8145 -8144 0
8145 8143 8144 0
7985 -17027 0
-7985 17027 0
-8140 -7331 0
-8140 7985 0
8140 7331 -7985 0
-8141 7331 0
-8141 -7985 0
8141 -7331 7985 0
-8142 -8140 0
-8142 -8141 0
8142 8140 8141 0
7984 -17026 0
-7984 17026 0
-8137 -7328 0
-8137 7984 0
8137 7328 -7984 0
-8138 7328 0
-8138 -7984 0
8138 -7328 7984 0
-8139 -8137 0
-8139 -8138 0
8139 8137 8138 0
7983 -17025 0
-7983 17025 0
-8134 -7325 0
-8134 7983 0
8134 7325 -7983 0
-8135 7325 0
-8135 -7983 0
8135 -7325 7983 0
-8136 -8134 0
-8136 -8135 0
8136 8134 8135 0
7982 -17024 0
-7982 17024 0
-8131 -7322 0
-8131 7982 0
8131 7322 -7982 0
-8132 7322 0
-8132 -7982 0
8132 -7322 7982 0
-8133 -8131 0
-8133 -8132 0
8133 8131 8132 0
7981 -17023 0
-7981 17023 0
-8128 -7319 0
-8128 7981 0
8128 7319 -7981 0
-8129 7319 0
-8129 -7981 0
8129 -7319 7981 0
-8130 -8128 0
-8130 -8129 0
8130 8128 8129 0
7980 -17022 0
-7980 17022 0
-8125 -7316 0
-8125 7980 0
8125 7316 -7980 0
-8126 7316 0
-8126 -7980 0
8126 -7316 7980 0
-8127 -8125 0
-8127 -8126 0
8127 8125 8126 0
7979 -17021 0
-7979 17021 0
-8122 -7313 0
-8122 7979 0
8122 7313 -7979 0
-8123 7313 0
-8123 -7979 0
8123 -7313 7979 0
-8124 -8122 0
-8124 -8123 0
8124 8122 8123 0
7978 -17020 0
-7978 17020 0
-8119 -7310 0
-8119 7978 0
8119 7310 -7978 0
-8120 7310 0
-8120 -7978 0
8120 -7310 7978 0
-8121 -8119 0
-8121 -8120 0
8121 8119 8120 0
7977 -17019 0
-7977 17019 0
-8116 -7307 0
-8116 7977 0
8116 7307 -7977 0
-8117 7307 0
-8117 -7977 0
8117 -7307 7977 0
-8118 -8116 0
-8118 -8117 0
8118 8116 8117 0
7976 -17018 0
-7976 17018 0
-8113 -7304 0
-8113 7976 0
8113 7304 -7976 0
-8114 7304 0
-8114 -7976 0
8114 -7304 7976 0
-8115 -8113 0
-8115 -8114 0
8115 8113 8114 0
7975 -17017 0
-7975 17017 0
-8110 -7301 0
-8110 7975 0
8110 7301 -7975 0
-8111 7301 0
-8111 -7975 0
8111 -7301 7975 0
-8112 -8110 0
-8112 -8111 0
8112 8110 8111 0
7974 -17016 0
-7974 17016 0
-8107 -7298 0
-8107 7974 0
8107 7298 -7974 0
-8108 7298 0
-8108 -7974 0
8108 -7298 7974 0
-8109 -8107 0
-8109 -8108 0
8109 8107 8108 0
7973 -17015 0
-7973 17015 0
-8104 -7295 0
-8104 7973 0
8104 7295 -7973 0
-8105 7295 0
-8105 -7973 0
8105 -7295 7973 0
-8106 -8104 0
-8106 -8105 0
8106 8104 8105 0
7972 -17014 0
-7972 17014 0
-8101 -7292 0
-8101 7972 0
8101 7292 -7972 0
-8102 7292 0
-8102 -7972 0
8102 -7292 7972 0
-8103 -8101 0
-8103 -8102 0
8103 8101 8102 0
7971 -17013 0
-7971 17013 0
-8098 -7289 0
-8098 7971 0
8098 7289 -7971 0
-8099 7289 0
-8099 -7971 0
8099 -7289 7971 0
-8100 -8098 0
-8100 -8099 0
8100 8098 8099 0
7970 -17012 0
-7970 17012 0
-8095 -7286 0
-8095 7970 0
8095 7286 -7970 0
-8096 7286 0
-8096 -7970 0
8096 -7286 7970 0
-8097 -8095 0
-8097 -8096 0
8097 8095 8096 0
7969 -17011 0
-7969 17011 0
-8092 -7283 0
-8092 7969 0
8092 7283 -7969 0
-8093 7283 0
-8093 -7969 0
8093 -7283 7969 0
-8094 -8092 0
-8094 -8093 0
8094 8092 8093 0
7968 -17010 0
-7968 17010 0
-8089 -7280 0
-8089 7968 0
8089 7280 -7968 0
-8090 7280 0
-8090 -7968 0
8090 -7280 7968 0
-8091 -8089 0
-8091 -8090 0
8091 8089 8090 0
7967 -17009 0
-7967 17009 0
-8086 -7277 0
-8086 7967 0
8086 7277 -7967 0
-8087 7277 0
-8087 -7967 0
8087 -7277 7967 0
-8088 -8086 0
-8088 -8087 0
8088 8086 8087 0
7966 -17008 0
-7966 17008 0
-8083 -7274 0
-8083 7966 0
8083 7274 -7966 0
-8084 7274 0
-8084 -7966 0
8084 -7274 7966 0
-8085 -8083 0
-8085 -8084 0
8085 8083 8084 0
7965 -17007 0
-7965 17007 0
-8080 -7271 0
-8080 7965 0
8080 7271 -7965 0
-8081 7271 0
-8081 -7965 0
8081 -7271 7965 0
-8082 -8080 0
-8082 -8081 0
8082 8080 8081 0
7964 -17006 0
-7964 17006 0
-8077 -7268 0
-8077 7964 0
8077 7268 -7964 0
-8078 7268 0
-8078 -7964 0
8078 -7268 7964 0
-8079 -8077 0
-8079 -8078 0
8079 8077 8078 0
7963 -17005 0
-7963 17005 0
-8074 -7265 0
-8074 7963 0
8074 7265 -7963 0
-8075 7265 0
-8075 -7963 0
8075 -7265 7963 0
-8076 -8074 0
-8076 -8075 0
8076 8074 8075 0
7962 -17004 0
-7962 17004 0
-8071 -7262 0
-8071 7962 0
8071 7262 -7962 0
-8072 7262 0
-8072 -7962 0
8072 -7262 7962 0
-8073 -8071 0
-8073 -8072 0
8073 8071 8072 0
7961 -17003 0
-7961 17003 0
-8068 -7259 0
-8068 7961 0
8068 7259 -7961 0
-8069 7259 0
-8069 -7961 0
8069 -7259 7961 0
-8070 -8068 0
-8070 -8069 0
8070 8068 8069 0
7960 -17002 0
-7960 17002 0
-8065 -7256 0
-8065 7960 0
8065 7256 -7960 0
-8066 7256 0
-8066 -7960 0
8066 -7256 7960 0
-8067 -8065 0
-8067 -8066 0
8067 8065 8066 0
7959 -17001 0
-7959 17001 0
-8062 -7253 0
-8062 7959 0
8062 7253 -7959 0
-8063 7253 0
-8063 -7959 0
8063 -7253 7959 0
-8064 -8062 0
-8064 -8063 0
8064 8062 8063 0
7958 -17000 0
-7958 17000 0
-8059 -7250 0
-8059 7958 0
8059 7250 -7958 0
-8060 7250 0
-8060 -7958 0
8060 -7250 7958 0
-8061 -8059 0
-8061 -8060 0
8061 8059 8060 0
7957 -16999 0
-7957 16999 0
-8056 -7247 0
-8056 7957 0
8056 7247 -7957 0
-8057 7247 0
-8057 -7957 0
8057 -7247 7957 0
-8058 -8056 0
-8058 -8057 0
8058 8056 8057 0
7956 -16998 0
-7956 16998 0
-8053 -7244 0
-8053 7956 0
8053 7244 -7956 0
-8054 7244 0
-8054 -7956 0
8054 -7244 7956 0
-8055 -8053 0
-8055 -8054 0
8055 8053 8054 0
7955 -16997 0
-7955 16997 0
-8050 -7241 0
-8050 7955 0
8050 7241 -7955 0
-8051 7241 0
-8051 -7955 0
8051 -7241 7955 0
-8052 -8050 0
-8052 -8051 0
8052 8050 8051 0
7954 -16996 0
-7954 16996 0
-8047 -7238 0
-8047 7954 0
8047 7238 -7954 0
-8048 7238 0
-8048 -7954 0
8048 -7238 7954 0
-8049 -8047 0
-8049 -8048 0
8049 8047 8048 0
7953 -16995 0
-7953 16995 0
-8044 -7235 0
-8044 7953 0
8044 7235 -7953 0
-8045 7235 0
-8045 -7953 0
8045 -7235 7953 0
-8046 -8044 0
-8046 -8045 0
8046 8044 8045 0
7952 -16994 0
-7952 16994 0
-8041 -7232 0
-8041 7952 0
8041 7232 -7952 0
-8042 7232 0
-8042 -7952 0
8042 -7232 7952 0
-8043 -8041 0
-8043 -8042 0
8043 8041 8042 0
7951 -16993 0
-7951 16993 0
-8038 -7229 0
-8038 7951 0
8038 7229 -7951 0
-8039 7229 0
-8039 -7951 0
8039 -7229 7951 0
-8040 -8038 0
-8040 -8039 0
8040 8038 8039 0
7950 -16992 0
-7950 16992 0
-8035 -7226 0
-8035 7950 0
8035 7226 -7950 0
-8036 7226 0
-8036 -7950 0
8036 -7226 7950 0
-8037 -8035 0
-8037 -8036 0
8037 8035 8036 0
7949 -16991 0
-7949 16991 0
-8032 -7223 0
-8032 7949 0
8032 7223 -7949 0
-8033 7223 0
-8033 -7949 0
8033 -7223 7949 0
-8034 -8032 0
-8034 -8033 0
8034 8032 8033 0
7948 -16990 0
-7948 16990 0
-8029 -7220 0
-8029 7948 0
8029 7220 -7948 0
-8030 7220 0
-8030 -7948 0
8030 -7220 7948 0
-8031 -8029 0
-8031 -8030 0
8031 8029 8030 0
7947 -16989 0
-7947 16989 0
-8026 -7217 0
-8026 7947 0
8026 7217 -7947 0
-8027 7217 0
-8027 -7947 0
8027 -7217 7947 0
-8028 -8026 0
-8028 -8027 0
8028 8026 8027 0
7946 -16988 0
-7946 16988 0
-8023 -7214 0
-8023 7946 0
8023 7214 -7946 0
-8024 7214 0
-8024 -7946 0
8024 -7214 7946 0
-8025 -8023 0
-8025 -8024 0
8025 8023 8024 0
7945 -16987 0
-7945 16987 0
-8020 -7211 0
-8020 7945 0
8020 7211 -7945 0
-8021 7211 0
-8021 -7945 0
8021 -7211 7945 0
-8022 -8020 0
-8022 -8021 0
8022 8020 8021 0
7944 -16986 0
-7944 16986 0
-8017 -7208 0
-8017 7944 0
8017 7208 -7944 0
-8018 7208 0
-8018 -7944 0
8018 -7208 7944 0
-8019 -8017 0
-8019 -8018 0
8019 8017 8018 0
7943 -16985 0
-7943 16985 0
-8014 -7205 0
-8014 7943 0
8014 7205 -7943 0
-8015 7205 0
-8015 -7943 0
8015 -7205 7943 0
-8016 -8014 0
-8016 -8015 0
8016 8014 8015 0
7942 -16984 0
-7942 16984 0
-8011 -7202 0
-8011 7942 0
8011 7202 -7942 0
-8012 7202 0
-8012 -7942 0
8012 -7202 7942 0
-8013 -8011 0
-8013 -8012 0
8013 8011 8012 0
7941 -16983 0
-7941 16983 0
-8008 -7199 0
-8008 7941 0
8008 7199 -7941 0
-8009 7199 0
-8009 -7941 0
8009 -7199 7941 0
-8010 -8008 0
-8010 -8009 0
8010 8008 8009 0
7939 -16981 0
-7939 16981 0
-8002 -7193 0
-8002 7939 0
8002 7193 -7939 0
-8003 7193 0
-8003 -7939 0
8003 -7193 7939 0
-8004 -8002 0
-8004 -8003 0
8004 8002 8003 0
7940 -16982 0
-7940 16982 0
-8005 -7196 0
-8005 7940 0
8005 7196 -7940 0
-8006 7196 0
-8006 -7940 0
8006 -7196 7940 0
-8007 -8005 0
-8007 -8006 0
8007 8005 8006 0
-8188 8004 0
-8188 8007 0
8188 -8004 -8007 0
-8189 8010 0
-8189 8188 0
8189 -8010 -8188 0
-8190 8013 0
-8190 8189 0
8190 -8013 -8189 0
-8191 8016 0
-8191 8190 0
8191 -8016 -8190 0
-8192 8019 0
-8192 8191 0
8192 -8019 -8191 0
-8193 8022 0
-8193 8192 0
8193 -8022 -8192 0
-8194 8025 0
-8194 8193 0
8194 -8025 -8193 0
-8195 8028 0
-8195 8194 0
8195 -8028 -8194 0
-8196 8031 0
-8196 8195 0
8196 -8031 -8195 0
-8197 8034 0
-8197 8196 0
8197 -8034 -8196 0
-8198 8037 0
-8198 8197 0
8198 -8037 -8197 0
-8199 8040 0
-8199 8198 0
8199 -8040 -8198 0
-8200 8043 0
-8200 8199 0
8200 -8043 -8199 0
-8201 8046 0
-8201 8200 0
8201 -8046 -8200 0
-8202 8049 0
-8202 8201 0
8202 -8049 -8201 0
-8203 8052 0
-8203 8202 0
8203 -8052 -8202 0
-8204 8055 0
-8204 8203 0
8204 -8055 -8203 0
-8205 8058 0
-8205 8204 0
8205 -8058 -8204 0
-8206 8061 0
-8206 8205 0
8206 -8061 -8205 0
-8207 8064 0
-8207 8206 0
8207 -8064 -8206 0
-8208 8067 0
-8208 8207 0
8208 -8067 -8207 0
-8209 8070 0
-8209 8208 0
8209 -8070 -8208 0
-8210 8073 0
-8210 8209 0
8210 -8073 -8209 0
-8211 8076 0
-8211 8210 0
8211 -8076 -8210 0
-8212 8079 0
-8212 8211 0
8212 -8079 -8211 0
-8213 8082 0
-8213 8212 0
8213 -8082 -8212 0
-8214 8085 0
-8214 8213 0
8214 -8085 -8213 0
-8215 8088 0
-8215 8214 0
8215 -8088 -8214 0
-8216 8091 0
-8216 8215 0
8216 -8091 -8215 0
-8217 8094 0
-8217 8216 0
8217 -8094 -8216 0
-8218 8097 0
-8218 8217 0
8218 -8097 -8217 0
-8219 8100 0
-8219 8218 0
8219 -8100 -8218 0
-8220 8103 0
-8220 8219 0
8220 -8103 -8219 0
-8221 8106 0
-8221 8220 0
8221 -8106 -8220 0
-8222 8109 0
-8222 8221 0
8222 -8109 -8221 0
-8223 8112 0
-8223 8222 0
8223 -8112 -8222 0
-8224 8115 0
-8224 8223 0
8224 -8115 -8223 0
-8225 8118 0
-8225 8224 0
8225 -8118 -8224 0
-8226 8121 0
-8226 8225 0
8226 -8121 -8225 0
-8227 8124 0
-8227 8226 0
8227 -8124 -8226 0
-8228 8127 0
-8228 8227 0
8228 -8127 -8227 0
-8229 8130 0
-8229 8228 0
8229 -8130 -8228 0
-8230 8133 0
-8230 8229 0
8230 -8133 -8229 0
-8231 8136 0
-8231 8230 0
8231 -8136 -8230 0
-8232 8139 0
-8232 8231 0
8232 -8139 -8231 0
-8233 8142 0
-8233 8232 0
8233 -8142 -8232 0
-8234 8145 0
-8234 8233 0
8234 -8145 -8233 0
-8235 8148 0
-8235 8234 0
8235 -8148 -8234 0
-8236 8151 0
-8236 8235 0
8236 -8151 -8235 0
-8237 8154 0
-8237 8236 0
8237 -8154 -8236 0
-8238 8157 0
-8238 8237 0
8238 -8157 -8237 0
-8239 8160 0
-8239 8238 0
8239 -8160 -8238 0
-8240 8163 0
-8240 8239 0
8240 -8163 -8239 0
-8241 8166 0
-8241 8240 0
8241 -8166 -8240 0
-8242 8169 0
-8242 8241 0
8242 -8169 -8241 0
-8243 8172 0
-8243 8242 0
8243 -8172 -8242 0
-8244 8175 0
-8244 8243 0
8244 -8175 -8243 0
-8245 8178 0
-8245 8244 0
8245 -8178 -8244 0
-8246 8181 0
-8246 8245 0
8246 -8181 -8245 0
-8247 8184 0
-8247 8246 0
8247 -8184 -8246 0
-8248 8187 0
-8248 8247 0
8248 -8187 -8247 0
-8249 -8001 0
-8249 8248 0
8249 8001 -8248 0
-8250 6081 0
-8250 -8249 0
8250 -6081 8249 0
-8251 7938 0
-8251 -8250 0
8251 -7938 8250 0
-8435 -6186 0
-8435 8000 0
8435 6186 -8000 0
-8436 6186 0
-8436 -8000 0
8436 -6186 8000 0
-8437 -8435 0
-8437 -8436 0
8437 8435 8436 0
-8432 -6185 0
-8432 7999 0
8432 6185 -7999 0
-8433 6185 0
-8433 -7999 0
8433 -6185 7999 0
-8434 -8432 0
-8434 -8433 0
8434 8432 8433 0
-8429 -6184 0
-8429 7998 0
8429 6184 -7998 0
-8430 6184 0
-8430 -7998 0
8430 -6184 7998 0
-8431 -8429 0
-8431 -8430 0
8431 8429 8430 0
-8426 -6183 0
-8426 7997 0
8426 6183 -7997 0
-8427 6183 0
-8427 -7997 0
8427 -6183 7997 0
-8428 -8426 0
-8428 -8427 0
8428 8426 8427 0
-8423 -6182 0
-8423 7996 0
8423 6182 -7996 0
-8424 6182 0
-8424 -7996 0
8424 -6182 7996 0
-8425 -8423 0
-8425 -8424 0
8425 8423 8424 0
-8420 -6181 0
-8420 7995 0
8420 6181 -7995 0
-8421 6181 0
-8421 -7995 0
8421 -6181 7995 0
-8422 -8420 0
-8422 -8421 0
8422 8420 8421 0
-8417 -6180 0
-8417 7994 0
8417 6180 -7994 0
-8418 6180 0
-8418 -7994 0
8418 -6180 7994 0
-8419 -8417 0
-8419 -8418 0
8419 8417 8418 0
-8414 -6179 0
-8414 7993 0
8414 6179 -7993 0
-8415 6179 0
-8415 -7993 0
8415 -6179 7993 0
-8416 -8414 0
-8416 -8415 0
8416 8414 8415 0
-8411 -6178 0
-8411 7992 0
8411 6178 -7992 0
-8412 6178 0
-8412 -7992 0
8412 -6178 7992 0
-8413 -8411 0
-8413 -8412 0
8413 8411 8412 0
-8408 -6177 0
-8408 7991 0
8408 6177 -7991 0
-8409 6177 0
-8409 -7991 0
8409 -6177 7991 0
-8410 -8408 0
-8410 -8409 0
8410 8408 8409 0
-8405 -6176 0
-8405 7990 0
8405 6176 -7990 0
-8406 6176 0
-8406 -7990 0
8406 -6176 7990 0
-8407 -8405 0
-8407 -8406 0
8407 8405 8406 0
-8402 -6175 0
-8402 7989 0
8402 6175 -7989 0
-8403 6175 0
-8403 -7989 0
8403 -6175 7989 0
-8404 -8402 0
-8404 -8403 0
8404 8402 8403 0
-8399 -6174 0
-8399 7988 0
8399 6174 -7988 0
-8400 6174 0
-8400 -7988 0
8400 -6174 7988 0
-8401 -8399 0
-8401 -8400 0
8401 8399 8400 0
-8396 -6173 0
-8396 7987 0
8396 6173 -7987 0
-8397 6173 0
-8397 -7987 0
8397 -6173 7987 0
-8398 -8396 0
-8398 -8397 0
8398 8396 8397 0
-8393 -6172 0
-8393 7986 0
8393 6172 -7986 0
-8394 6172 0
-8394 -7986 0
8394 -6172 7986 0
-8395 -8393 0
-8395 -8394 0
8395 8393 8394 0
-8390 -6171 0
-8390 7985 0
8390 6171 -7985 0
-8391 6171 0
-8391 -7985 0
8391 -6171 7985 0
-8392 -8390 0
-8392 -8391 0
8392 8390 8391 0
-8387 -6170 0
-8387 7984 0
8387 6170 -7984 0
-8388 6170 0
-8388 -7984 0
8388 -6170 7984 0
-8389 -8387 0
-8389 -8388 0
8389 8387 8388 0
-8384 -6169 0
-8384 7983 0
8384 6169 -7983 0
-8385 6169 0
-8385 -7983 0
8385 -6169 7983 0
-8386 -8384 0
-8386 -8385 0
8386 8384 8385 0
-8381 -6168 0
-8381 7982 0
8381 6168 -7982 0
-8382 6168 0
-8382 -7982 0
8382 -6168 7982 0
-8383 -8381 0
-8383 -8382 0
8383 8381 8382 0
-8378 -6167 0
-8378 7981 0
8378 6167 -7981 0
-8379 6167 0
-8379 -7981 0
8379 -6167 7981 0
-8380 -8378 0
-8380 -8379 0
8380 8378 8379 0
-8375 -6166 0
-8375 7980 0
8375 6166 -7980 0
-8376 6166 0
-8376 -7980 0
8376 -6166 7980 0
-8377 -8375 0
-8377 -8376 0
8377 8375 8376 0
-8372 -6165 0
-8372 7979 0
8372 6165 -7979 0
-8373 6165 0
-8373 -7979 0
8373 -6165 7979 0
-8374 -8372 0
-8374 -8373 0
8374 8372 8373 0
-8369 -6164 0
-8369 7978 0
8369 6164 -7978 0
-8370 6164 0
-8370 -7978 0
8370 -6164 7978 0
-8371 -8369 0
-8371 -8370 0
8371 8369 8370 0
-8366 -6163 0
-8366 7977 0
8366 6163 -7977 0
-8367 6163 0
-8367 -7977 0
8367 -6163 7977 0
-8368 -8366 0
-8368 -8367 0
8368 8366 8367 0
-8363 -6162 0
-8363 7976 0
8363 6162 -7976 0
-8364 6162 0
-8364 -7976 0
8364 -6162 7976 0
-8365 -8363 0
-8365 -8364 0
8365 8363 8364 0
-8360 -6161 0
-8360 7975 0
8360 6161 -7975 0
-8361 6161 0
-8361 -7975 0
8361 -6161 7975 0
-8362 -8360 0
-8362 -8361 0
8362 8360 8361 0
-8357 -6160 0
-8357 7974 0
8357 6160 -7974 0
-8358 6160 0
-8358 -7974 0
8358 -6160 7974 0
-8359 -8357 0
-8359 -8358 0
8359 8357 8358 0
-8354 -6159 0
-8354 7973 0
8354 6159 -7973 0
-8355 6159 0
-8355 -7973 0
8355 -6159 7973 0
-8356 -8354 0
-8356 -8355 0
8356 8354 8355 0
-8351 -6158 0
-8351 7972 0
8351 6158 -7972 0
-8352 6158 0
-8352 -7972 0
8352 -6158 7972 0
-8353 -8351 0
-8353 -8352 0
8353 8351 8352 0
-8348 -6157 0
-8348 7971 0
8348 6157 -7971 0
-8349 6157 0
-8349 -7971 0
8349 -6157 7971 0
-8350 -8348 0
-8350 -8349 0
8350 8348 8349 0
-8345 -6156 0
-8345 7970 0
8345 6156 -7970 0
-8346 6156 0
-8346 -7970 0
8346 -6156 7970 0
-8347 -8345 0
-8347 -8346 0
8347 8345 8346 0
-8342 -6155 0
-8342 7969 0
8342 6155 -7969 0
-8343 6155 0
-8343 -7969 0
8343 -6155 7969 0
-8344 -8342 0
-8344 -8343 0
8344 8342 8343 0
-8339 -6154 0
-8339 7968 0
8339 6154 -7968 0
-8340 6154 0
-8340 -7968 0
8340 -6154 7968 0
-8341 -8339 0
-8341 -8340 0
8341 8339 8340 0
-8336 -6153 0
-8336 7967 0
8336 6153 -7967 0
-8337 6153 0
-8337 -7967 0
8337 -6153 7967 0
-8338 -8336 0
-8338 -8337 0
8338 8336 8337 0
-8333 -6152 0
-8333 7966 0
8333 6152 -7966 0
-8334 6152 0
-8334 -7966 0
8334 -6152 7966 0
-8335 -8333 0
-8335 -8334 0
8335 8333 8334 0
-8330 -6151 0
-8330 7965 0
8330 6151 -7965 0
-8331 6151 0
-8331 -7965 0
8331 -6151 7965 0
-8332 -8330 0
-8332 -8331 0
8332 8330 8331 0
-8327 -6150 0
-8327 7964 0
8327 6150 -7964 0
-8328 6150 0
-8328 -7964 0
8328 -6150 7964 0
-8329 -8327 0
-8329 -8328 0
8329 8327 8328 0
-8324 -6149 0
-8324 7963 0
8324 6149 -7963 0
-8325 6149 0
-8325 -7963 0
8325 -6149 7963 0
-8326 -8324 0
-8326 -8325 0
8326 8324 8325 0
-8321 -6148 0
-8321 7962 0
8321 6148 -7962 0
-8322 6148 0
-8322 -7962 0
8322 -6148 7962 0
-8323 -8321 0
-8323 -8322 0
8323 8321 8322 0
-8318 -6147 0
-8318 7961 0
8318 6147 -7961 0
-8319 6147 0
-8319 -7961 0
8319 -6147 7961 0
-8320 -8318 0
-8320 -8319 0
8320 8318 8319 0
-8315 -6146 0
-8315 7960 0
8315 6146 -7960 0
-8316 6146 0
-8316 -7960 0
8316 -6146 7960 0
-8317 -8315 0
-8317 -8316 0
8317 8315 8316 0
-8312 -6145 0
-8312 7959 0
8312 6145 -7959 0
-8313 6145 0
-8313 -7959 0
8313 -6145 7959 0
-8314 -8312 0
-8314 -8313 0
8314 8312 8313 0
-8309 -6144 0
-8309 7958 0
8309 6144 -7958 0
-8310 6144 0
-8310 -7958 0
8310 -6144 7958 0
-8311 -8309 0
-8311 -8310 0
8311 8309 8310 0
-8306 -6143 0
-8306 7957 0
8306 6143 -7957 0
-8307 6143 0
-8307 -7957 0
8307 -6143 7957 0
-8308 -8306 0
-8308 -8307 0
8308 8306 8307 0
-8303 -6142 0
-8303 7956 0
8303 6142 -7956 0
-8304 6142 0
-8304 -7956 0
8304 -6142 7956 0
-8305 -8303 0
-8305 -8304 0
8305 8303 8304 0
-8300 -6141 0
-8300 7955 0
8300 6141 -7955 0
-8301 6141 0
-8301 -7955 0
8301 -6141 7955 0
-8302 -8300 0
-8302 -8301 0
8302 8300 8301 0
-8297 -6140 0
-8297 7954 0
8297 6140 -7954 0
-8298 6140 0
-8298 -7954 0
8298 -6140 7954 0
-8299 -8297 0
-8299 -8298 0
8299 8297 8298 0
-8294 -6139 0
-8294 7953 0
8294 6139 -7953 0
-8295 6139 0
-8295 -7953 0
8295 -6139 7953 0
-8296 -8294 0
-8296 -8295 0
8296 8294 8295 0
-8291 -6138 0
-8291 7952 0
8291 6138 -7952 0
-8292 6138 0
-8292 -7952 0
8292 -6138 7952 0
-8293 -8291 0
-8293 -8292 0
8293 8291 8292 0
-8288 -6137 0
-8288 7951 0
8288 6137 -7951 0
-8289 6137 0
-8289 -7951 0
8289 -6137 7951 0
-8290 -8288 0
-8290 -8289 0
8290 8288 8289 0
-8285 -6136 0
-8285 7950 0
8285 6136 -7950 0
-8286 6136 0
-8286 -7950 0
8286 -6136 7950 0
-8287 -8285 0
-8287 -8286 0
8287 8285 8286 0
-8282 -6135 0
-8282 7949 0
8282 6135 -7949 0
-8283 6135 0
-8283 -7949 0
8283 -6135 7949 0
-8284 -8282 0
-8284 -8283 0
8284 8282 8283 0
-8279 -6134 0
-8279 7948 0
8279 6134 -7948 0
-8280 6134 0
-8280 -7948 0
8280 -6134 7948 0
-8281 -8279 0
-8281 -8280 0
8281 8279 8280 0
-8276 -6133 0
-8276 7947 0
8276 6133 -7947 0
-8277 6133 0
-8277 -7947 0
8277 -6133 7947 0
-8278 -8276 0
-8278 -8277 0
8278 8276 8277 0
-8273 -6132 0
-8273 7946 0
8273 6132 -7946 0
-8274 6132 0
-8274 -7946 0
8274 -6132 7946 0
-8275 -8273 0
-8275 -8274 0
8275 8273 8274 0
-8270 -6131 0
-8270 7945 0
8270 6131 -7945 0
-8271 6131 0
-8271 -7945 0
8271 -6131 7945 0
-8272 -8270 0
-8272 -8271 0
8272 8270 8271 0
-8267 -6130 0
-8267 7944 0
8267 6130 -7944 0
-8268 6130 0
-8268 -7944 0
8268 -6130 7944 0
-8269 -8267 0
-8269 -8268 0
8269 8267 8268 0
-8264 -6129 0
-8264 7943 0
8264 6129 -7943 0
-8265 6129 0
-8265 -7943 0
8265 -6129 7943 0
-8266 -8264 0
-8266 -8265 0
8266 8264 8265 0
-8261 -6128 0
-8261 7942 0
8261 6128 -7942 0
-8262 6128 0
-8262 -7942 0
8262 -6128 7942 0
-8263 -8261 0
-8263 -8262 0
8263 8261 8262 0
-8258 -6127 0
-8258 7941 0
8258 6127 -7941 0
-8259 6127 0
-8259 -7941 0
8259 -6127 7941 0
-8260 -8258 0
-8260 -8259 0
8260 8258 8259 0
-8252 -6125 0
-8252 7939 0
8252 6125 -7939 0
-8253 6125 0
-8253 -7939 0
8253 -6125 7939 0
-8254 -8252 0
-8254 -8253 0
8254 8252 8253 0
-8255 -6126 0
-8255 7940 0
8255 6126 -7940 0
-8256 6126 0
-8256 -7940 0
8256 -6126 7940 0
-8257 -8255 0
-8257 -8256 0
8257 8255 8256 0
-8438 8254 0
-8438 8257 0
8438 -8254 -8257 0
-8439 8260 0
-8439 8438 0
8439 -8260 -8438 0
-8440 8263 0
-8440 8439 0
8440 -8263 -8439 0
-8441 8266 0
-8441 8440 0
8441 -8266 -8440 0
-8442 8269 0
-8442 8441 0
8442 -8269 -8441 0
-8443 8272 0
-8443 8442 0
8443 -8272 -8442 0
-8444 8275 0
-8444 8443 0
8444 -8275 -8443 0
-8445 8278 0
-8445 8444 0
8445 -8278 -8444 0
-8446 8281 0
-8446 8445 0
8446 -8281 -8445 0
-8447 8284 0
-8447 8446 0
8447 -8284 -8446 0
-8448 8287 0
-8448 8447 0
8448 -8287 -8447 0
-8449 8290 0
-8449 8448 0
8449 -8290 -8448 0
-8450 8293 0
-8450 8449 0
8450 -8293 -8449 0
-8451 8296 0
-8451 8450 0
8451 -8296 -8450 0
-8452 8299 0
-8452 8451 0
8452 -8299 -8451 0
-8453 8302 0
-8453 8452 0
8453 -8302 -8452 0
-8454 8305 0
-8454 8453 0
8454 -8305 -8453 0
-8455 8308 0
-8455 8454 0
8455 -8308 -8454 0
-8456 8311 0
-8456 8455 0
8456 -8311 -8455 0
-8457 8314 0
-8457 8456 0
8457 -8314 -8456 0
-8458 8317 0
-8458 8457 0
8458 -8317 -8457 0
-8459 8320 0
-8459 8458 0
8459 -8320 -8458 0
-8460 8323 0
-8460 8459 0
8460 -8323 -8459 0
-8461 8326 0
-8461 8460 0
8461 -8326 -8460 0
-8462 8329 0
-8462 8461 0
8462 -8329 -8461 0
-8463 8332 0
-8463 8462 0
8463 -8332 -8462 0
-8464 8335 0
-8464 8463 0
8464 -8335 -8463 0
-8465 8338 0
-8465 8464 0
8465 -8338 -8464 0
-8466 8341 0
-8466 8465 0
8466 -8341 -8465 0
-8467 8344 0
-8467 8466 0
8467 -8344 -8466 0
-8468 8347 0
-8468 8467 0
8468 -8347 -8467 0
-8469 8350 0
-8469 8468 0
8469 -8350 -8468 0
-8470 8353 0
-8470 8469 0
8470 -8353 -8469 0
-8471 8356 0
-8471 8470 0
8471 -8356 -8470 0
-8472 8359 0
-8472 8471 0
8472 -8359 -8471 0
-8473 8362 0
-8473 8472 0
8473 -8362 -8472 0
-8474 8365 0
-8474 8473 0
8474 -8365 -8473 0
-8475 8368 0
-8475 8474 0
8475 -8368 -8474 0
-8476 8371 0
-8476 8475 0
8476 -8371 -8475 0
-8477 8374 0
-8477 8476 0
8477 -8374 -8476 0
-8478 8377 0
-8478 8477 0
8478 -8377 -8477 0
-8479 8380 0
-8479 8478 0
8479 -8380 -8478 0
-8480 8383 0
-8480 8479 0
8480 -8383 -8479 0
-8481 8386 0
-8481 8480 0
8481 -8386 -8480 0
-8482 8389 0
-8482 8481 0
8482 -8389 -8481 0
-8483 8392 0
-8483 8482 0
8483 -8392 -8482 0
-8484 8395 0
-8484 8483 0
8484 -8395 -8483 0
-8485 8398 0
-8485 8484 0
8485 -8398 -8484 0
-8486 8401 0
-8486 8485 0
8486 -8401 -8485 0
-8487 8404 0
-8487 8486 0
8487 -8404 -8486 0
-8488 8407 0
-8488 8487 0
8488 -8407 -8487 0
-8489 8410 0
-8489 8488 0
8489 -8410 -8488 0
-8490 8413 0
-8490 8489 0
8490 -8413 -8489 0
-8491 8416 0
-8491 8490 0
8491 -8416 -8490 0
-8492 8419 0
-8492 8491 0
8492 -8419 -8491 0
-8493 8422 0
-8493 8492 0
8493 -8422 -8492 0
-8494 8425 0
-8494 8493 0
8494 -8425 -8493 0
-8495 8428 0
-8495 8494 0
8495 -8428 -8494 0
-8496 8431 0
-8496 8495 0
8496 -8431 -8495 0
-8497 8434 0
-8497 8496 0
8497 -8434 -8496 0
-8498 8437 0
-8498 8497 0
8498 -8437 -8497 0
-8499 -8001 0
-8499 8498 0
8499 8001 -8498 0
-8500 -6081 0
-8500 -8499 0
8500 6081 8499 0
-8501 8251 0
-8501 -8500 0
8501 -8251 8500 0
8565 -17107 0
-8565 17107 0
8564 -17106 0
-8564 17106 0
-8989 6748 0
-8989 6749 0
8989 -6748 -6749 0
-8982 6747 0
-8982 6748 0
8982 -6747 -6748 0
-8975 6746 0
-8975 6747 0
8975 -6746 -6747 0
-8968 6745 0
-8968 6746 0
8968 -6745 -6746 0
-8961 6744 0
-8961 6745 0
8961 -6744 -6745 0
-8954 6743 0
-8954 6744 0
8954 -6743 -6744 0
-8947 6742 0
-8947 6743 0
8947 -6742 -6743 0
-8940 6741 0
-8940 6742 0
8940 -6741 -6742 0
-8933 6740 0
-8933 6741 0
8933 -6740 -6741 0
-8926 6739 0
-8926 6740 0
8926 -6739 -6740 0
-8919 6738 0
-8919 6739 0
8919 -6738 -6739 0
-8912 6737 0
-8912 6738 0
8912 -6737 -6738 0
-8905 6736 0
-8905 6737 0
8905 -6736 -6737 0
-8898 6735 0
-8898 6736 0
8898 -6735 -6736 0
-8891 6734 0
-8891 6735 0
8891 -6734 -6735 0
-8884 6733 0
-8884 6734 0
8884 -6733 -6734 0
-8877 6732 0
-8877 6733 0
8877 -6732 -6733 0
-8870 6731 0
-8870 6732 0
8870 -6731 -6732 0
-8863 6730 0
-8863 6731 0
8863 -6730 -6731 0
-8856 6729 0
-8856 6730 0
8856 -6729 -6730 0
-8849 6728 0
-8849 6729 0
8849 -6728 -6729 0
-8842 6727 0
-8842 6728 0
8842 -6727 -6728 0
-8835 6726 0
-8835 6727 0
8835 -6726 -6727 0
-8828 6725 0
-8828 6726 0
8828 -6725 -6726 0
-8821 6724 0
-8821 6725 0
8821 -6724 -6725 0
-8814 6723 0
-8814 6724 0
8814 -6723 -6724 0
-8807 6722 0
-8807 6723 0
8807 -6722 -6723 0
-8800 6721 0
-8800 6722 0
8800 -6721 -6722 0
-8793 6720 0
-8793 6721 0
8793 -6720 -6721 0
-8786 6719 0
-8786 6720 0
8786 -6719 -6720 0
-8779 6718 0
-8779 6719 0
8779 -6718 -6719 0
-8772 6717 0
-8772 6718 0
8772 -6717 -6718 0
-8765 6716 0
-8765 6717 0
8765 -6716 -6717 0
-8758 6715 0
-8758 6716 0
8758 -6715 -6716 0
-8751 6714 0
-8751 6715 0
8751 -6714 -6715 0
-8744 6713 0
-8744 6714 0
8744 -6713 -6714 0
-8737 6712 0
-8737 6713 0
8737 -6712 -6713 0
-8730 6711 0
-8730 6712 0
8730 -6711 -6712 0
-8723 6710 0
-8723 6711 0
8723 -6710 -6711 0
-8716 6709 0
-8716 6710 0
8716 -6709 -6710 0
-8709 6708 0
-8709 6709 0
8709 -6708 -6709 0
-8702 6707 0
-8702 6708 0
8702 -6707 -6708 0
-8695 6706 0
-8695 6707 0
8695 -6706 -6707 0
-8688 6705 0
-8688 6706 0
8688 -6705 -6706 0
-8681 6704 0
-8681 6705 0
8681 -6704 -6705 0
-8674 6703 0
-8674 6704 0
8674 -6703 -6704 0
-8667 6702 0
-8667 6703 0
8667 -6702 -6703 0
-8660 6701 0
-8660 6702 0
8660 -6701 -6702 0
-8653 6700 0
-8653 6701 0
8653 -6700 -6701 0
-8646 6699 0
-8646 6700 0
8646 -6699 -6700 0
-8639 6698 0
-8639 6699 0
8639 -6698 -6699 0
-8632 6697 0
-8632 6698 0
8632 -6697 -6698 0
-8625 6696 0
-8625 6697 0
8625 -6696 -6697 0
-8618 6695 0
-8618 6696 0
8618 -6695 -6696 0
-8611 6694 0
-8611 6695 0
8611 -6694 -6695 0
-8604 6693 0
-8604 6694 0
8604 -6693 -6694 0
-8597 6692 0
-8597 6693 0
8597 -6692 -6693 0
-8590 6691 0
-8590 6692 0
8590 -6691 -6692 0
-8583 6690 0
-8583 6691 0
8583 -6690 -6691 0
-8576 6689 0
-8576 6690 0
8576 -6689 -6690 0
-8569 6688 0
-8569 6689 0
8569 -6688 -6689 0
-8566 6687 0
-8566 6688 0
8566 -6687 -6688 0
-8570 -6688 0
-8570 -6689 0
8570 6688 6689 0
-8571 -8569 0
-8571 -8570 0
8571 8569 8570 0
-8572 8566 0
-8572 8571 0
8572 -8566 -8571 0
-8575 -8569 0
-8575 -8572 0
8575 8569 8572 0
-8577 -6689 0
-8577 -6690 0
8577 6689 6690 0
-8578 -8576 0
-8578 -8577 0
8578 8576 8577 0
-8579 -8575 0
-8579 8578 0
8579 8575 -8578 0
-8582 -8576 0
-8582 -8579 0
8582 8576 8579 0
-8584 -6690 0
-8584 -6691 0
8584 6690 6691 0
-8585 -8583 0
-8585 -8584 0
8585 8583 8584 0
-8586 -8582 0
-8586 8585 0
8586 8582 -8585 0
-8589 -8583 0
-8589 -8586 0
8589 8583 8586 0
-8591 -6691 0
-8591 -6692 0
8591 6691 6692 0
-8592 -8590 0
-8592 -8591 0
8592 8590 8591 0
-8593 -8589 0
-8593 8592 0
8593 8589 -8592 0
-8596 -8590 0
-8596 -8593 0
8596 8590 8593 0
-8598 -6692 0
-8598 -6693 0
8598 6692 6693 0
-8599 -8597 0
-8599 -8598 0
8599 8597 8598 0
-8600 -8596 0
-8600 8599 0
8600 8596 -8599 0
-8603 -8597 0
-8603 -8600 0
8603 8597 8600 0
-8605 -6693 0
-8605 -6694 0
8605 6693 6694 0
-8606 -8604 0
-8606 -8605 0
8606 8604 8605 0
-8607 -8603 0
-8607 8606 0
8607 8603 -8606 0
-8610 -8604 0
-8610 -8607 0
8610 8604 8607 0
-8612 -6694 0
-8612 -6695 0
8612 6694 6695 0
-8613 -8611 0
-8613 -8612 0
8613 8611 8612 0
-8614 -8610 0
-8614 8613 0
8614 8610 -8613 0
-8617 -8611 0
-8617 -8614 0
8617 8611 8614 0
-8619 -6695 0
-8619 -6696 0
8619 6695 6696 0
-8620 -8618 0
-8620 -8619 0
8620 8618 8619 0
-8621 -8617 0
-8621 8620 0
8621 8617 -8620 0
-8624 -8618 0
-8624 -8621 0
8624 8618 8621 0
-8626 -6696 0
-8626 -6697 0
8626 6696 6697 0
-8627 -8625 0
-8627 -8626 0
8627 8625 8626 0
-8628 -8624 0
-8628 8627 0
8628 8624 -8627 0
-8631 -8625 0
-8631 -8628 0
8631 8625 8628 0
-8633 -6697 0
-8633 -6698 0
8633 6697 6698 0
-8634 -8632 0
-8634 -8633 0
8634 8632 8633 0
-8635 -8631 0
-8635 8634 0
8635 8631 -8634 0
-8638 -8632 0
-8638 -8635 0
8638 8632 8635 0
-8640 -6698 0
-8640 -6699 0
8640 6698 6699 0
-8641 -8639 0
-8641 -8640 0
8641 8639 8640 0
-8642 -8638 0
-8642 8641 0
8642 8638 -8641 0
-8645 -8639 0
-8645 -8642 0
8645 8639 8642 0
-8647 -6699 0
-8647 -6700 0
8647 6699 6700 0
-8648 -8646 0
-8648 -8647 0
8648 8646 8647 0
-8649 -8645 0
-8649 8648 0
8649 8645 -8648 0
-8652 -8646 0
-8652 -8649 0
8652 8646 8649 0
-8654 -6700 0
-8654 -6701 0
8654 6700 6701 0
-8655 -8653 0
-8655 -8654 0
8655 8653 8654 0
-8656 -8652 0
-8656 8655 0
8656 8652 -8655 0
-8659 -8653 0
-8659 -8656 0
8659 8653 8656 0
-8661 -6701 0
-8661 -6702 0
8661 6701 6702 0
-8662 -8660 0
-8662 -8661 0
8662 8660 8661 0
-8663 -8659 0
-8663 8662 0
8663 8659 -8662 0
-8666 -8660 0
-8666 -8663 0
8666 8660 8663 0
-8668 -6702 0
-8668 -6703 0
8668 6702 6703 0
-8669 -8667 0
-8669 -8668 0
8669 8667 8668 0
-8670 -8666 0
-8670 8669 0
8670 8666 -8669 0
-8673 -8667 0
-8673 -8670 0
8673 8667 8670 0
-8675 -6703 0
-8675 -6704 0
8675 6703 6704 0
-8676 -8674 0
-8676 -8675 0
8676 8674 8675 0
-8677 -8673 0
-8677 8676 0
8677 8673 -8676 0
-8680 -8674 0
-8680 -8677 0
8680 8674 8677 0
-8682 -6704 0
-8682 -6705 0
8682 6704 6705 0
-8683 -8681 0
-8683 -8682 0
8683 8681 8682 0
-8684 -8680 0
-8684 8683 0
8684 8680 -8683 0
-8687 -8681 0
-8687 -8684 0
8687 8681 8684 0
-8689 -6705 0
-8689 -6706 0
8689 6705 6706 0
-8690 -8688 0
-8690 -8689 0
8690 8688 8689 0
-8691 -8687 0
-8691 8690 0
8691 8687 -8690 0
-8694 -8688 0
-8694 -8691 0
8694 8688 8691 0
-8696 -6706 0
-8696 -6707 0
8696 6706 6707 0
-8697 -8695 0
-8697 -8696 0
8697 8695 8696 0
-8698 -8694 0
-8698 8697 0
8698 8694 -8697 0
-8701 -8695 0
-8701 -8698 0
8701 8695 8698 0
-8703 -6707 0
-8703 -6708 0
8703 6707 6708 0
-8704 -8702 0
-8704 -8703 0
8704 8702 8703 0
-8705 -8701 0
-8705 8704 0
8705 8701 -8704 0
-8708 -8702 0
-8708 -8705 0
8708 8702 8705 0
-8710 -6708 0
-8710 -6709 0
8710 6708 6709 0
-8711 -8709 0
-8711 -8710 0
8711 8709 8710 0
-8712 -8708 0
-8712 8711 0
8712 8708 -8711 0
-8715 -8709 0
-8715 -8712 0
8715 8709 8712 0
-8717 -6709 0
-8717 -6710 0
8717 6709 6710 0
-8718 -8716 0
-8718 -8717 0
8718 8716 8717 0
-8719 -8715 0
-8719 8718 0
8719 8715 -8718 0
-8722 -8716 0
-8722 -8719 0
8722 8716 8719 0
-8724 -6710 0
-8724 -6711 0
8724 6710 6711 0
-8725 -8723 0
-8725 -8724 0
8725 8723 8724 0
-8726 -8722 0
-8726 8725 0
8726 8722 -8725 0
-8729 -8723 0
-8729 -8726 0
8729 8723 8726 0
-8731 -6711 0
-8731 -6712 0
8731 6711 6712 0
-8732 -8730 0
-8732 -8731 0
8732 8730 8731 0
-8733 -8729 0
-8733 8732 0
8733 8729 -8732 0
-8736 -8730 0
-8736 -8733 0
8736 8730 8733 0
-8738 -6712 0
-8738 -6713 0
8738 6712 6713 0
-8739 -8737 0
-8739 -8738 0
8739 8737 8738 0
-8740 -8736 0
-8740 8739 0
8740 8736 -8739 0
-8743 -8737 0
-8743 -8740 0
8743 8737 8740 0
-8745 -6713 0
-8745 -6714 0
8745 6713 6714 0
-8746 -8744 0
-8746 -8745 0
8746 8744 8745 0
-8747 -8743 0
-8747 8746 0
8747 8743 -8746 0
-8750 -8744 0
-8750 -8747 0
8750 8744 8747 0
-8752 -6714 0
-8752 -6715 0
8752 6714 6715 0
-8753 -8751 0
-8753 -8752 0
8753 8751 8752 0
-8754 -8750 0
-8754 8753 0
8754 8750 -8753 0
-8757 -8751 0
-8757 -8754 0
8757 8751 8754 0
-8759 -6715 0
-8759 -6716 0
8759 6715 6716 0
-8760 -8758 0
-8760 -8759 0
8760 8758 8759 0
-8761 -8757 0
-8761 8760 0
8761 8757 -8760 0
-8764 -8758 0
-8764 -8761 0
8764 8758 8761 0
-8766 -6716 0
-8766 -6717 0
8766 6716 6717 0
-8767 -8765 0
-8767 -8766 0
8767 8765 8766 0
-8768 -8764 0
-8768 8767 0
8768 8764 -8767 0
-8771 -8765 0
-8771 -8768 0
8771 8765 8768 0
-8773 -6717 0
-8773 -6718 0
8773 6717 6718 0
-8774 -8772 0
-8774 -8773 0
8774 8772 8773 0
-8775 -8771 0
-8775 8774 0
8775 8771 -8774 0
-8778 -8772 0
-8778 -8775 0
8778 8772 8775 0
-8780 -6718 0
-8780 -6719 0
8780 6718 6719 0
-8781 -8779 0
-8781 -8780 0
8781 8779 8780 0
-8782 -8778 0
-8782 8781 0
8782 8778 -8781 0
-8785 -8779 0
-8785 -8782 0
8785 8779 8782 0
-8787 -6719 0
-8787 -6720 0
8787 6719 6720 0
-8788 -8786 0
-8788 -8787 0
8788 8786 8787 0
-8789 -8785 0
-8789 8788 0
8789 8785 -8788 0
-8792 -8786 0
-8792 -8789 0
8792 8786 8789 0
-8794 -6720 0
-8794 -6721 0
8794 6720 6721 0
-8795 -8793 0
-8795 -8794 0
8795 8793 8794 0
-8796 -8792 0
-8796 8795 0
8796 8792 -8795 0
-8799 -8793 0
-8799 -8796 0
8799 8793 8796 0
-8801 -6721 0
-8801 -6722 0
8801 6721 6722 0
-8802 -8800 0
-8802 -8801 0
8802 8800 8801 0
-8803 -8799 0
-8803 8802 0
8803 8799 -8802 0
-8806 -8800 0
-8806 -8803 0
8806 8800 8803 0
-8808 -6722 0
-8808 -6723 0
8808 6722 6723 0
-8809 -8807 0
-8809 -8808 0
8809 8807 8808 0
-8810 -8806 0
-8810 8809 0
8810 8806 -8809 0
-8813 -8807 0
-8813 -8810 0
8813 8807 8810 0
-8815 -6723 0
-8815 -6724 0
8815 6723 6724 0
-8816 -8814 0
-8816 -8815 0
8816 8814 8815 0
-8817 -8813 0
-8817 8816 0
8817 8813 -8816 0
-8820 -8814 0
-8820 -8817 0
8820 8814 8817 0
-8822 -6724 0
-8822 -6725 0
8822 6724 6725 0
-8823 -8821 0
-8823 -8822 0
8823 8821 8822 0
-8824 -8820 0
-8824 8823 0
8824 8820 -8823 0
-8827 -8821 0
-8827 -8824 0
8827 8821 8824 0
-8829 -6725 0
-8829 -6726 0
8829 6725 6726 0
-8830 -8828 0
-8830 -8829 0
8830 8828 8829 0
-8831 -8827 0
-8831 8830 0
8831 8827 -8830 0
-8834 -8828 0
-8834 -8831 0
8834 8828 8831 0
-8836 -6726 0
-8836 -6727 0
8836 6726 6727 0
-8837 -8835 0
-8837 -8836 0
8837 8835 8836 0
-8838 -8834 0
-8838 8837 0
8838 8834 -8837 0
-8841 -8835 0
-8841 -8838 0
8841 8835 8838 0
-8843 -6727 0
-8843 -6728 0
8843 6727 6728 0
-8844 -8842 0
-8844 -8843 0
8844 8842 8843 0
-8845 -8841 0
-8845 8844 0
8845 8841 -8844 0
-8848 -8842 0
-8848 -8845 0
8848 8842 8845 0
-8850 -6728 0
-8850 -6729 0
8850 6728 6729 0
-8851 -8849 0
-8851 -8850 0
8851 8849 8850 0
-8852 -8848 0
-8852 8851 0
8852 8848 -8851 0
-8855 -8849 0
-8855 -8852 0
8855 8849 8852 0
-8857 -6729 0
-8857 -6730 0
8857 6729 6730 0
-8858 -8856 0
-8858 -8857 0
8858 8856 8857 0
-8859 -8855 0
-8859 8858 0
8859 8855 -8858 0
-8862 -8856 0
-8862 -8859 0
8862 8856 8859 0
-8864 -6730 0
-8864 -6731 0
8864 6730 6731 0
-8865 -8863 0
-8865 -8864 0
8865 8863 8864 0
-8866 -8862 0
-8866 8865 0
8866 8862 -8865 0
-8869 -8863 0
-8869 -8866 0
8869 8863 8866 0
-8871 -6731 0
-8871 -6732 0
8871 6731 6732 0
-8872 -8870 0
-8872 -8871 0
8872 8870 8871 0
-8873 -8869 0
-8873 8872 0
8873 8869 -8872 0
-8876 -8870 0
-8876 -8873 0
8876 8870 8873 0
-8878 -6732 0
-8878 -6733 0
8878 6732 6733 0
-8879 -8877 0
-8879 -8878 0
8879 8877 8878 0
-8880 -8876 0
-8880 8879 0
8880 8876 -8879 0
-8883 -8877 0
-8883 -8880 0
8883 8877 8880 0
-8885 -6733 0
-8885 -6734 0
8885 6733 6734 0
-8886 -8884 0
-8886 -8885 0
8886 8884 8885 0
-8887 -8883 0
-8887 8886 0
8887 8883 -8886 0
-8890 -8884 0
-8890 -8887 0
8890 8884 8887 0
-8892 -6734 0
-8892 -6735 0
8892 6734 6735 0
-8893 -8891 0
-8893 -8892 0
8893 8891 8892 0
-8894 -8890 0
-8894 8893 0
8894 8890 -8893 0
-8897 -8891 0
-8897 -8894 0
8897 8891 8894 0
-8899 -6735 0
-8899 -6736 0
8899 6735 6736 0
-8900 -8898 0
-8900 -8899 0
8900 8898 8899 0
-8901 -8897 0
-8901 8900 0
8901 8897 -8900 0
-8904 -8898 0
-8904 -8901 0
8904 8898 8901 0
-8906 -6736 0
-8906 -6737 0
8906 6736 6737 0
-8907 -8905 0
-8907 -8906 0
8907 8905 8906 0
-8908 -8904 0
-8908 8907 0
8908 8904 -8907 0
-8911 -8905 0
-8911 -8908 0
8911 8905 8908 0
-8913 -6737 0
-8913 -6738 0
8913 6737 6738 0
-8914 -8912 0
-8914 -8913 0
8914 8912 8913 0
-8915 -8911 0
-8915 8914 0
8915 8911 -8914 0
-8918 -8912 0
-8918 -8915 0
8918 8912 8915 0
-8920 -6738 0
-8920 -6739 0
8920 6738 6739 0
-8921 -8919 0
-8921 -8920 0
8921 8919 8920 0
-8922 -8918 0
-8922 8921 0
8922 8918 -8921 0
-8925 -8919 0
-8925 -8922 0
8925 8919 8922 0
-8927 -6739 0
-8927 -6740 0
8927 6739 6740 0
-8928 -8926 0
-8928 -8927 0
8928 8926 8927 0
-8929 -8925 0
-8929 8928 0
8929 8925 -8928 0
-8932 -8926 0
-8932 -8929 0
8932 8926 8929 0
-8934 -6740 0
-8934 -6741 0
8934 6740 6741 0
-8935 -8933 0
-8935 -8934 0
8935 8933 8934 0
-8936 -8932 0
-8936 8935 0
8936 8932 -8935 0
-8939 -8933 0
-8939 -8936 0
8939 8933 8936 0
-8941 -6741 0
-8941 -6742 0
8941 6741 6742 0
-8942 -8940 0
-8942 -8941 0
8942 8940 8941 0
-8943 -8939 0
-8943 8942 0
8943 8939 -8942 0
-8946 -8940 0
-8946 -8943 0
8946 8940 8943 0
-8948 -6742 0
-8948 -6743 0
8948 6742 6743 0
-8949 -8947 0
-8949 -8948 0
8949 8947 8948 0
-8950 -8946 0
-8950 8949 0
8950 8946 -8949 0
-8953 -8947 0
-8953 -8950 0
8953 8947 8950 0
-8955 -6743 0
-8955 -6744 0
8955 6743 6744 0
-8956 -8954 0
-8956 -8955 0
8956 8954 8955 0
-8957 -8953 0
-8957 8956 0
8957 8953 -8956 0
-8960 -8954 0
-8960 -8957 0
8960 8954 8957 0
-8962 -6744 0
-8962 -6745 0
8962 6744 6745 0
-8963 -8961 0
-8963 -8962 0
8963 8961 8962 0
-8964 -8960 0
-8964 8963 0
8964 8960 -8963 0
-8967 -8961 0
-8967 -8964 0
8967 8961 8964 0
-8969 -6745 0
-8969 -6746 0
8969 6745 6746 0
-8970 -8968 0
-8970 -8969 0
8970 8968 8969 0
-8971 -8967 0
-8971 8970 0
8971 8967 -8970 0
-8974 -8968 0
-8974 -8971 0
8974 8968 8971 0
-8976 -6746 0
-8976 -6747 0
8976 6746 6747 0
-8977 -8975 0
-8977 -8976 0
8977 8975 8976 0
-8978 -8974 0
-8978 8977 0
8978 8974 -8977 0
-8981 -8975 0
-8981 -8978 0
8981 8975 8978 0
-8983 -6747 0
-8983 -6748 0
8983 6747 6748 0
-8984 -8982 0
-8984 -8983 0
8984 8982 8983 0
-8985 -8981 0
-8985 8984 0
8985 8981 -8984 0
-8988 -8982 0
-8988 -8985 0
8988 8982 8985 0
-8990 -6748 0
-8990 -6749 0
8990 6748 6749 0
-8991 -8989 0
-8991 -8990 0
8991 8989 8990 0
-8992 -8988 0
-8992 8991 0
8992 8988 -8991 0
-8995 -8989 0
-8995 -8992 0
8995 8989 8992 0
-8996 6749 0
-8996 6750 0
8996 -6749 -6750 0
-8997 -6749 0
-8997 -6750 0
8997 6749 6750 0
-8998 -8996 0
-8998 -8997 0
8998 8996 8997 0
-8999 -8995 0
-8999 8998 0
8999 8995 -8998 0
-9000 8995 0
-9000 -8998 0
9000 -8995 8998 0
-9001 -8999 0
-9001 -9000 0
9001 8999 9000 0
-8993 8988 0
-8993 -8991 0
8993 -8988 8991 0
-8994 -8992 0
-8994 -8993 0
8994 8992 8993 0
-8986 8981 0
-8986 -8984 0
8986 -8981 8984 0
-8987 -8985 0
-8987 -8986 0
8987 8985 8986 0
-8979 8974 0
-8979 -8977 0
8979 -8974 8977 0
-8980 -8978 0
-8980 -8979 0
8980 8978 8979 0
-8972 8967 0
-8972 -8970 0
8972 -8967 8970 0
-8973 -8971 0
-8973 -8972 0
8973 8971 8972 0
-8965 8960 0
-8965 -8963 0
8965 -8960 8963 0
-8966 -8964 0
-8966 -8965 0
8966 8964 8965 0
-8958 8953 0
-8958 -8956 0
8958 -8953 8956 0
-8959 -8957 0
-8959 -8958 0
8959 8957 8958 0
-8951 8946 0
-8951 -8949 0
8951 -8946 8949 0
-8952 -8950 0
-8952 -8951 0
8952 8950 8951 0
-8944 8939 0
-8944 -8942 0
8944 -8939 8942 0
-8945 -8943 0
-8945 -8944 0
8945 8943 8944 0
-8937 8932 0
-8937 -8935 0
8937 -8932 8935 0
-8938 -8936 0
-8938 -8937 0
8938 8936 8937 0
-8930 8925 0
-8930 -8928 0
8930 -8925 8928 0
-8931 -8929 0
-8931 -8930 0
8931 8929 8930 0
-8923 8918 0
-8923 -8921 0
8923 -8918 8921 0
-8924 -8922 0
-8924 -8923 0
8924 8922 8923 0
-8916 8911 0
-8916 -8914 0
8916 -8911 8914 0
-8917 -8915 0
-8917 -8916 0
8917 8915 8916 0
-8909 8904 0
-8909 -8907 0
8909 -8904 8907 0
-8910 -8908 0
-8910 -8909 0
8910 8908 8909 0
-8902 8897 0
-8902 -8900 0
8902 -8897 8900 0
-8903 -8901 0
-8903 -8902 0
8903 8901 8902 0
-8895 8890 0
-8895 -8893 0
8895 -8890 8893 0
-8896 -8894 0
-8896 -8895 0
8896 8894 8895 0
-8888 8883 0
-8888 -8886 0
8888 -8883 8886 0
-8889 -8887 0
-8889 -8888 0
8889 8887 8888 0
-8881 8876 0
-8881 -8879 0
8881 -8876 8879 0
-8882 -8880 0
-8882 -8881 0
8882 8880 8881 0
-8874 8869 0
-8874 -8872 0
8874 -8869 8872 0
-8875 -8873 0
-8875 -8874 0
8875 8873 8874 0
-8867 8862 0
-8867 -8865 0
8867 -8862 8865 0
-8868 -8866 0
-8868 -8867 0
8868 8866 8867 0
-8860 8855 0
-8860 -8858 0
8860 -8855 8858 0
-8861 -8859 0
-8861 -8860 0
8861 8859 8860 0
-8853 8848 0
-8853 -8851 0
8853 -8848 8851 0
-8854 -8852 0
-8854 -8853 0
8854 8852 8853 0
-8846 8841 0
-8846 -8844 0
8846 -8841 8844 0
-8847 -8845 0
-8847 -8846 0
8847 8845 8846 0
-8839 8834 0
-8839 -8837 0
8839 -8834 8837 0
-8840 -8838 0
-8840 -8839 0
8840 8838 8839 0
-8832 8827 0
-8832 -8830 0
8832 -8827 8830 0
-8833 -8831 0
-8833 -8832 0
8833 8831 8832 0
-8825 8820 0
-8825 -8823 0
8825 -8820 8823 0
-8826 -8824 0
-8826 -8825 0
8826 8824 8825 0
-8818 8813 0
-8818 -8816 0
8818 -8813 8816 0
-8819 -8817 0
-8819 -8818 0
8819 8817 8818 0
-8811 8806 0
-8811 -8809 0
8811 -8806 8809 0
-8812 -8810 0
-8812 -8811 0
8812 8810 8811 0
-8804 8799 0
-8804 -8802 0
8804 -8799 8802 0
-8805 -8803 0
-8805 -8804 0
8805 8803 8804 0
-8797 8792 0
-8797 -8795 0
8797 -8792 8795 0
-8798 -8796 0
-8798 -8797 0
8798 8796 8797 0
-8790 8785 0
-8790 -8788 0
8790 -8785 8788 0
-8791 -8789 0
-8791 -8790 0
8791 8789 8790 0
-8783 8778 0
-8783 -8781 0
8783 -8778 8781 0
-8784 -8782 0
-8784 -8783 0
8784 8782 8783 0
-8776 8771 0
-8776 -8774 0
8776 -8771 8774 0
-8777 -8775 0
-8777 -8776 0
8777 8775 8776 0
-8769 8764 0
-8769 -8767 0
8769 -8764 8767 0
-8770 -8768 0
-8770 -8769 0
8770 8768 8769 0
-8762 8757 0
-8762 -8760 0
8762 -8757 8760 0
-8763 -8761 0
-8763 -8762 0
8763 8761 8762 0
-8755 8750 0
-8755 -8753 0
8755 -8750 8753 0
-8756 -8754 0
-8756 -8755 0
8756 8754 8755 0
-8748 8743 0
-8748 -8746 0
8748 -8743 8746 0
-8749 -8747 0
-8749 -8748 0
8749 8747 8748 0
-8741 8736 0
-8741 -8739 0
8741 -8736 8739 0
-8742 -8740 0
-8742 -8741 0
8742 8740 8741 0
-8734 8729 0
-8734 -8732 0
8734 -8729 8732 0
-8735 -8733 0
-8735 -8734 0
8735 8733 8734 0
-8727 8722 0
-8727 -8725 0
8727 -8722 8725 0
-8728 -8726 0
-8728 -8727 0
8728 8726 8727 0
-8720 8715 0
-8720 -8718 0
8720 -8715 8718 0
-8721 -8719 0
-8721 -8720 0
8721 8719 8720 0
-8713 8708 0
-8713 -8711 0
8713 -8708 8711 0
-8714 -8712 0
-8714 -8713 0
8714 8712 8713 0
-8706 8701 0
-8706 -8704 0
8706 -8701 8704 0
-8707 -8705 0
-8707 -8706 0
8707 8705 8706 0
-8699 8694 0
-8699 -8697 0
8699 -8694 8697 0
-8700 -8698 0
-8700 -8699 0
8700 8698 8699 0
-8692 8687 0
-8692 -8690 0
8692 -8687 8690 0
-8693 -8691 0
-8693 -8692 0
8693 8691 8692 0
-8685 8680 0
-8685 -8683 0
8685 -8680 8683 0
-8686 -8684 0
-8686 -8685 0
8686 8684 8685 0
-8678 8673 0
-8678 -8676 0
8678 -8673 8676 0
-8679 -8677 0
-8679 -8678 0
8679 8677 8678 0
-8671 8666 0
-8671 -8669 0
8671 -8666 8669 0
-8672 -8670 0
-8672 -8671 0
8672 8670 8671 0
-8664 8659 0
-8664 -8662 0
8664 -8659 8662 0
-8665 -8663 0
-8665 -8664 0
8665 8663 8664 0
-8657 8652 0
-8657 -8655 0
8657 -8652 8655 0
-8658 -8656 0
-8658 -8657 0
8658 8656 8657 0
-8650 8645 0
-8650 -8648 0
8650 -8645 8648 0
-8651 -8649 0
-8651 -8650 0
8651 8649 8650 0
-8643 8638 0
-8643 -8641 0
8643 -8638 8641 0
-8644 -8642 0
-8644 -8643 0
8644 8642 8643 0
-8636 8631 0
-8636 -8634 0
8636 -8631 8634 0
-8637 -8635 0
-8637 -8636 0
8637 8635 8636 0
-8629 8624 0
-8629 -8627 0
8629 -8624 8627 0
-8630 -8628 0
-8630 -8629 0
8630 8628 8629 0
-8622 8617 0
-8622 -8620 0
8622 -8617 8620 0
-8623 -8621 0
-8623 -8622 0
8623 8621 8622 0
-8615 8610 0
-8615 -8613 0
8615 -8610 8613 0
-8616 -8614 0
-8616 -8615 0
8616 8614 8615 0
-8608 8603 0
-8608 -8606 0
8608 -8603 8606 0
-8609 -8607 0
-8609 -8608 0
8609 8607 8608 0
-8601 8596 0
-8601 -8599 0
8601 -8596 8599 0
-8602 -8600 0
-8602 -8601 0
8602 8600 8601 0
-8594 8589 0
-8594 -8592 0
8594 -8589 8592 0
-8595 -8593 0
-8595 -8594 0
8595 8593 8594 0
-8587 8582 0
-8587 -8585 0
8587 -8582 8585 0
-8588 -8586 0
-8588 -8587 0
8588 8586 8587 0
-8580 8575 0
-8580 -8578 0
8580 -8575 8578 0
-8581 -8579 0
-8581 -8580 0
8581 8579 8580 0
-8573 -8566 0
-8573 -8571 0
8573 8566 8571 0
-8574 -8572 0
-8574 -8573 0
8574 8572 8573 0
-8567 -6687 0
-8567 -6688 0
8567 6687 6688 0
-8568 -8566 0
-8568 -8567 0
8568 8566 8567 0
-9003 6687 0
-9003 8568 0
9003 -6687 -8568 0
-9006 8574 0
-9006 9003 0
9006 -8574 -9003 0
-9009 8581 0
-9009 9006 0
9009 -8581 -9006 0
-9012 8588 0
-9012 9009 0
9012 -8588 -9009 0
-9015 8595 0
-9015 9012 0
9015 -8595 -9012 0
-9018 8602 0
-9018 9015 0
9018 -8602 -9015 0
-9021 8609 0
-9021 9018 0
9021 -8609 -9018 0
-9024 8616 0
-9024 9021 0
9024 -8616 -9021 0
-9027 8623 0
-9027 9024 0
9027 -8623 -9024 0
-9030 8630 0
-9030 9027 0
9030 -8630 -9027 0
-9033 8637 0
-9033 9030 0
9033 -8637 -9030 0
-9036 8644 0
-9036 9033 0
9036 -8644 -9033 0
-9039 8651 0
-9039 9036 0
9039 -8651 -9036 0
-9042 8658 0
-9042 9039 0
9042 -8658 -9039 0
-9045 8665 0
-9045 9042 0
9045 -8665 -9042 0
-9048 8672 0
-9048 9045 0
9048 -8672 -9045 0
-9051 8679 0
-9051 9048 0
9051 -8679 -9048 0
-9054 8686 0
-9054 9051 0
9054 -8686 -9051 0
-9057 8693 0
-9057 9054 0
9057 -8693 -9054 0
-9060 8700 0
-9060 9057 0
9060 -8700 -9057 0
-9063 8707 0
-9063 9060 0
9063 -8707 -9060 0
-9066 8714 0
-9066 9063 0
9066 -8714 -9063 0
-9069 8721 0
-9069 9066 0
9069 -8721 -9066 0
-9072 8728 0
-9072 9069 0
9072 -8728 -9069 0
-9075 8735 0
-9075 9072 0
9075 -8735 -9072 0
-9078 8742 0
-9078 9075 0
9078 -8742 -9075 0
-9081 8749 0
-9081 9078 0
9081 -8749 -9078 0
-9084 8756 0
-9084 9081 0
9084 -8756 -9081 0
-9087 8763 0
-9087 9084 0
9087 -8763 -9084 0
-9090 8770 0
-9090 9087 0
9090 -8770 -9087 0
-9093 8777 0
-9093 9090 0
9093 -8777 -9090 0
-9096 8784 0
-9096 9093 0
9096 -8784 -9093 0
-9099 8791 0
-9099 9096 0
9099 -8791 -9096 0
-9102 8798 0
-9102 9099 0
9102 -8798 -9099 0
-9105 8805 0
-9105 9102 0
9105 -8805 -9102 0
-9108 8812 0
-9108 9105 0
9108 -8812 -9105 0
-9111 8819 0
-9111 9108 0
9111 -8819 -9108 0
-9114 8826 0
-9114 9111 0
9114 -8826 -9111 0
-9117 8833 0
-9117 9114 0
9117 -8833 -9114 0
-9120 8840 0
-9120 9117 0
9120 -8840 -9117 0
-9123 8847 0
-9123 9120 0
9123 -8847 -9120 0
-9126 8854 0
-9126 9123 0
9126 -8854 -9123 0
-9129 8861 0
-9129 9126 0
9129 -8861 -9126 0
-9132 8868 0
-9132 9129 0
9132 -8868 -9129 0
-9135 8875 0
-9135 9132 0
9135 -8875 -9132 0
-9138 8882 0
-9138 9135 0
9138 -8882 -9135 0
-9141 8889 0
-9141 9138 0
9141 -8889 -9138 0
-9144 8896 0
-9144 9141 0
9144 -8896 -9141 0
-9147 8903 0
-9147 9144 0
9147 -8903 -9144 0
-9150 8910 0
-9150 9147 0
9150 -8910 -9147 0
-9153 8917 0
-9153 9150 0
9153 -8917 -9150 0
-9156 8924 0
-9156 9153 0
9156 -8924 -9153 0
-9159 8931 0
-9159 9156 0
9159 -8931 -9156 0
-9162 8938 0
-9162 9159 0
9162 -8938 -9159 0
-9165 8945 0
-9165 9162 0
9165 -8945 -9162 0
-9168 8952 0
-9168 9165 0
9168 -8952 -9165 0
-9171 8959 0
-9171 9168 0
9171 -8959 -9168 0
-9174 8966 0
-9174 9171 0
9174 -8966 -9171 0
-9177 8973 0
-9177 9174 0
9177 -8973 -9174 0
-9180 8980 0
-9180 9177 0
9180 -8980 -9177 0
-9183 8987 0
-9183 9180 0
9183 -8987 -9180 0
-9186 8994 0
-9186 9183 0
9186 -8994 -9183 0
-9189 9001 0
-9189 9186 0
9189 -9001 -9186 0
-9190 -9001 0
-9190 -9186 0
9190 9001 9186 0
-9191 -9189 0
-9191 -9190 0
9191 9189 9190 0
-9378 8564 0
-9378 -9191 0
9378 -8564 9191 0
-9379 -8564 0
-9379 9191 0
9379 8564 -9191 0
-9380 -9378 0
-9380 -9379 0
9380 9378 9379 0
8563 -17105 0
-8563 17105 0
-9187 -8994 0
-9187 -9183 0
9187 8994 9183 0
-9188 -9186 0
-9188 -9187 0
9188 9186 9187 0
-9375 8563 0
-9375 -9188 0
9375 -8563 9188 0
-9376 -8563 0
-9376 9188 0
9376 8563 -9188 0
-9377 -9375 0
-9377 -9376 0
9377 9375 9376 0
8562 -17104 0
-8562 17104 0
-9184 -8987 0
-9184 -9180 0
9184 8987 9180 0
-9185 -9183 0
-9185 -9184 0
9185 9183 9184 0
-9372 8562 0
-9372 -9185 0
9372 -8562 9185 0
-9373 -8562 0
-9373 9185 0
9373 8562 -9185 0
-9374 -9372 0
-9374 -9373 0
9374 9372 9373 0
8561 -17103 0
-8561 17103 0
-9181 -8980 0
-9181 -9177 0
9181 8980 9177 0
-9182 -9180 0
-9182 -9181 0
9182 9180 9181 0
-9369 8561 0
-9369 -9182 0
9369 -8561 9182 0
-9370 -8561 0
-9370 9182 0
9370 8561 -9182 0
-9371 -9369 0
-9371 -9370 0
9371 9369 9370 0
8560 -17102 0
-8560 17102 0
-9178 -8973 0
-9178 -9174 0
9178 8973 9174 0
-9179 -9177 0
-9179 -9178 0
9179 9177 9178 0
-9366 8560 0
-9366 -9179 0
9366 -8560 9179 0
-9367 -8560 0
-9367 9179 0
9367 8560 -9179 0
-9368 -9366 0
-9368 -9367 0
9368 9366 9367 0
8559 -17101 0
-8559 17101 0
-9175 -8966 0
-9175 -9171 0
9175 8966 9171 0
-9176 -9174 0
-9176 -9175 0
9176 9174 9175 0
-9363 8559 0
-9363 -9176 0
9363 -8559 9176 0
-9364 -8559 0
-9364 9176 0
9364 8559 -9176 0
-9365 -9363 0
-9365 -9364 0
9365 9363 9364 0
8558 -17100 0
-8558 17100 0
-9172 -8959 0
-9172 -9168 0
9172 8959 9168 0
-9173 -9171 0
-9173 -9172 0
9173 9171 9172 0
-9360 8558 0
-9360 -9173 0
9360 -8558 9173 0
-9361 -8558 0
-9361 9173 0
9361 8558 -9173 0
-9362 -9360 0
-9362 -9361 0
9362 9360 9361 0
8557 -17099 0
-8557 17099 0
-9169 -8952 0
-9169 -9165 0
9169 8952 9165 0
-9170 -9168 0
-9170 -9169 0
9170 9168 9169 0
-9357 8557 0
-9357 -9170 0
9357 -8557 9170 0
-9358 -8557 0
-9358 9170 0
9358 8557 -9170 0
-9359 -9357 0
-9359 -9358 0
9359 9357 9358 0
8556 -17098 0
-8556 17098 0
-9166 -8945 0
-9166 -9162 0
9166 8945 9162 0
-9167 -9165 0
-9167 -9166 0
9167 9165 9166 0
-9354 8556 0
-9354 -9167 0
9354 -8556 9167 0
-9355 -8556 0
-9355 9167 0
9355 8556 -9167 0
-9356 -9354 0
-9356 -9355 0
9356 9354 9355 0
8555 -17097 0
-8555 17097 0
-9163 -8938 0
-9163 -9159 0
9163 8938 9159 0
-9164 -9162 0
-9164 -9163 0
9164 9162 9163 0
-9351 8555 0
-9351 -9164 0
9351 -8555 9164 0
-9352 -8555 0
-9352 9164 0
9352 8555 -9164 0
-9353 -9351 0
-9353 -9352 0
9353 9351 9352 0
8554 -17096 0
-8554 17096 0
-9160 -8931 0
-9160 -9156 0
9160 8931 9156 0
-9161 -9159 0
-9161 -9160 0
9161 9159 9160 0
-9348 8554 0
-9348 -9161 0
9348 -8554 9161 0
-9349 -8554 0
-9349 9161 0
9349 8554 -9161 0
-9350 -9348 0
-9350 -9349 0
9350 9348 9349 0
8553 -17095 0
-8553 17095 0
-9157 -8924 0
-9157 -9153 0
9157 8924 9153 0
-9158 -9156 0
-9158 -9157 0
9158 9156 9157 0
-9345 8553 0
-9345 -9158 0
9345 -8553 9158 0
-9346 -8553 0
-9346 9158 0
9346 8553 -9158 0
-9347 -9345 0
-9347 -9346 0
9347 9345 9346 0
8552 -17094 0
-8552 17094 0
-9154 -8917 0
-9154 -9150 0
9154 8917 9150 0
-9155 -9153 0
-9155 -9154 0
9155 9153 9154 0
-9342 8552 0
-9342 -9155 0
9342 -8552 9155 0
-9343 -8552 0
-9343 9155 0
9343 8552 -9155 0
-9344 -9342 0
-9344 -9343 0
9344 9342 9343 0
8551 -17093 0
-8551 17093 0
-9151 -8910 0
-9151 -9147 0
9151 8910 9147 0
-9152 -9150 0
-9152 -9151 0
9152 9150 9151 0
-9339 8551 0
-9339 -9152 0
9339 -8551 9152 0
-9340 -8551 0
-9340 9152 0
9340 8551 -9152 0
-9341 -9339 0
-9341 -9340 0
9341 9339 9340 0
8550 -17092 0
-8550 17092 0
-9148 -8903 0
-9148 -9144 0
9148 8903 9144 0
-9149 -9147 0
-9149 -9148 0
9149 9147 9148 0
-9336 8550 0
-9336 -9149 0
9336 -8550 9149 0
-9337 -8550 0
-9337 9149 0
9337 8550 -9149 0
-9338 -9336 0
-9338 -9337 0
9338 9336 9337 0
8549 -17091 0
-8549 17091 0
-9145 -8896 0
-9145 -9141 0
9145 8896 9141 0
-9146 -9144 0
-9146 -9145 0
9146 9144 9145 0
-9333 8549 0
-9333 -9146 0
9333 -8549 9146 0
-9334 -8549 0
-9334 9146 0
9334 8549 -9146 0
-9335 -9333 0
-9335 -9334 0
9335 9333 9334 0
8548 -17090 0
-8548 17090 0
-9142 -8889 0
-9142 -9138 0
9142 8889 9138 0
-9143 -9141 0
-9143 -9142 0
9143 9141 9142 0
-9330 8548 0
-9330 -9143 0
9330 -8548 9143 0
-9331 -8548 0
-9331 9143 0
9331 8548 -9143 0
-9332 -9330 0
-9332 -9331 0
9332 9330 9331 0
8547 -17089 0
-8547 17089 0
-9139 -8882 0
-9139 -9135 0
9139 8882 9135 0
-9140 -9138 0
-9140 -9139 0
9140 9138 9139 0
-9327 8547 0
-9327 -9140 0
9327 -8547 9140 0
-9328 -8547 0
-9328 9140 0
9328 8547 -9140 0
-9329 -9327 0
-9329 -9328 0
9329 9327 9328 0
8546 -17088 0
-8546 17088 0
-9136 -8875 0
-9136 -9132 0
9136 8875 9132 0
-9137 -9135 0
-9137 -9136 0
9137 9135 9136 0
-9324 8546 0
-9324 -9137 0
9324 -8546 9137 0
-9325 -8546 0
-9325 9137 0
9325 8546 -9137 0
-9326 -9324 0
-9326 -9325 0
9326 9324 9325 0
8545 -17087 0
-8545 17087 0
-9133 -8868 0
-9133 -9129 0
9133 8868 9129 0
-9134 -9132 0
-9134 -9133 0
9134 9132 9133 0
-9321 8545 0
-9321 -9134 0
9321 -8545 9134 0
-9322 -8545 0
-9322 9134 0
9322 8545 -9134 0
-9323 -9321 0
-9323 -9322 0
9323 9321 9322 0
8544 -17086 0
-8544 17086 0
-9130 -8861 0
-9130 -9126 0
9130 8861 9126 0
-9131 -9129 0
-9131 -9130 0
9131 9129 9130 0
-9318 8544 0
-9318 -9131 0
9318 -8544 9131 0
-9319 -8544 0
-9319 9131 0
9319 8544 -9131 0
-9320 -9318 0
-9320 -9319 0
9320 9318 9319 0
8543 -17085 0
-8543 17085 0
-9127 -8854 0
-9127 -9123 0
9127 8854 9123 0
-9128 -9126 0
-9128 -9127 0
9128 9126 9127 0
-9315 8543 0
-9315 -9128 0
9315 -8543 9128 0
-9316 -8543 0
-9316 9128 0
9316 8543 -9128 0
-9317 -9315 0
-9317 -9316 0
9317 9315 9316 0
8542 -17084 0
-8542 17084 0
-9124 -8847 0
-9124 -9120 0
9124 8847 9120 0
-9125 -9123 0
-9125 -9124 0
9125 9123 9124 0
-9312 8542 0
-9312 -9125 0
9312 -8542 9125 0
-9313 -8542 0
-9313 9125 0
9313 8542 -9125 0
-9314 -9312 0
-9314 -9313 0
9314 9312 9313 0
8541 -17083 0
-8541 17083 0
-9121 -8840 0
-9121 -9117 0
9121 8840 9117 0
-9122 -9120 0
-9122 -9121 0
9122 9120 9121 0
-9309 8541 0
-9309 -9122 0
9309 -8541 9122 0
-9310 -8541 0
-9310 9122 0
9310 8541 -9122 0
-9311 -9309 0
-9311 -9310 0
9311 9309 9310 0
8540 -17082 0
-8540 17082 0
-9118 -8833 0
-9118 -9114 0
9118 8833 9114 0
-9119 -9117 0
-9119 -9118 0
9119 9117 9118 0
-9306 8540 0
-9306 -9119 0
9306 -8540 9119 0
-9307 -8540 0
-9307 9119 0
9307 8540 -9119 0
-9308 -9306 0
-9308 -9307 0
9308 9306 9307 0
8539 -17081 0
-8539 17081 0
-9115 -8826 0
-9115 -9111 0
9115 8826 9111 0
-9116 -9114 0
-9116 -9115 0
9116 9114 9115 0
-9303 8539 0
-9303 -9116 0
9303 -8539 9116 0
-9304 -8539 0
-9304 9116 0
9304 8539 -9116 0
-9305 -9303 0
-9305 -9304 0
9305 9303 9304 0
8538 -17080 0
-8538 17080 0
-9112 -8819 0
-9112 -9108 0
9112 8819 9108 0
-9113 -9111 0
-9113 -9112 0
9113 9111 9112 0
-9300 8538 0
-9300 -9113 0
9300 -8538 9113 0
-9301 -8538 0
-9301 9113 0
9301 8538 -9113 0
-9302 -9300 0
-9302 -9301 0
9302 9300 9301 0
8537 -17079 0
-8537 17079 0
-9109 -8812 0
-9109 -9105 0
9109 8812 9105 0
-9110 -9108 0
-9110 -9109 0
9110 9108 9109 0
-9297 8537 0
-9297 -9110 0
9297 -8537 9110 0
-9298 -8537 0
-9298 9110 0
9298 8537 -9110 0
-9299 -9297 0
-9299 -9298 0
9299 9297 9298 0
8536 -17078 0
-8536 17078 0
-9106 -8805 0
-9106 -9102 0
9106 8805 9102 0
-9107 -9105 0
-9107 -9106 0
9107 9105 9106 0
-9294 8536 0
-9294 -9107 0
9294 -8536 9107 0
-9295 -8536 0
-9295 9107 0
9295 8536 -9107 0
-9296 -9294 0
-9296 -9295 0
9296 9294 9295 0
8535 -17077 0
-8535 17077 0
-9103 -8798 0
-9103 -9099 0
9103 8798 9099 0
-9104 -9102 0
-9104 -9103 0
9104 9102 9103 0
-9291 8535 0
-9291 -9104 0
9291 -8535 9104 0
-9292 -8535 0
-9292 9104 0
9292 8535 -9104 0
-9293 -9291 0
-9293 -9292 0
9293 9291 9292 0
8534 -17076 0
-8534 17076 0
-9100 -8791 0
-9100 -9096 0
9100 8791 9096 0
-9101 -9099 0
-9101 -9100 0
9101 9099 9100 0
-9288 8534 0
-9288 -9101 0
9288 -8534 9101 0
-9289 -8534 0
-9289 9101 0
9289 8534 -9101 0
-9290 -9288 0
-9290 -9289 0
9290 9288 9289 0
8533 -17075 0
-8533 17075 0
-9097 -8784 0
-9097 -9093 0
9097 8784 9093 0
-9098 -9096 0
-9098 -9097 0
9098 9096 9097 0
-9285 8533 0
-9285 -9098 0
9285 -8533 9098 0
-9286 -8533 0
-9286 9098 0
9286 8533 -9098 0
-9287 -9285 0
-9287 -9286 0
9287 9285 9286 0
8532 -17074 0
-8532 17074 0
-9094 -8777 0
-9094 -9090 0
9094 8777 9090 0
-9095 -9093 0
-9095 -9094 0
9095 9093 9094 0
-9282 8532 0
-9282 -9095 0
9282 -8532 9095 0
-9283 -8532 0
-9283 9095 0
9283 8532 -9095 0
-9284 -9282 0
-9284 -9283 0
9284 9282 9283 0
8531 -17073 0
-8531 17073 0
-9091 -8770 0
-9091 -9087 0
9091 8770 9087 0
-9092 -9090 0
-9092 -9091 0
9092 9090 9091 0
-9279 8531 0
-9279 -9092 0
9279 -8531 9092 0
-9280 -8531 0
-9280 9092 0
9280 8531 -9092 0
-9281 -9279 0
-9281 -9280 0
9281 9279 9280 0
8530 -17072 0
-8530 17072 0
-9088 -8763 0
-9088 -9084 0
9088 8763 9084 0
-9089 -9087 0
-9089 -9088 0
9089 9087 9088 0
-9276 8530 0
-9276 -9089 0
9276 -8530 9089 0
-9277 -8530 0
-9277 9089 0
9277 8530 -9089 0
-9278 -9276 0
-9278 -9277 0
9278 9276 9277 0
8529 -17071 0
-8529 17071 0
-9085 -8756 0
-9085 -9081 0
9085 8756 9081 0
-9086 -9084 0
-9086 -9085 0
9086 9084 9085 0
-9273 8529 0
-9273 -9086 0
9273 -8529 9086 0
-9274 -8529 0
-9274 9086 0
9274 8529 -9086 0
-9275 -9273 0
-9275 -9274 0
9275 9273 9274 0
8528 -17070 0
-8528 17070 0
-9082 -8749 0
-9082 -9078 0
9082 8749 9078 0
-9083 -9081 0
-9083 -9082 0
9083 9081 9082 0
-9270 8528 0
-9270 -9083 0
9270 -8528 9083 0
-9271 -8528 0
-9271 9083 0
9271 8528 -9083 0
-9272 -9270 0
-9272 -9271 0
9272 9270 9271 0
8527 -17069 0
-8527 17069 0
-9079 -8742 0
-9079 -9075 0
9079 8742 9075 0
-9080 -9078 0
-9080 -9079 0
9080 9078 9079 0
-9267 8527 0
-9267 -9080 0
9267 -8527 9080 0
-9268 -8527 0
-9268 9080 0
9268 8527 -9080 0
-9269 -9267 0
-9269 -9268 0
9269 9267 9268 0
8526 -17068 0
-8526 17068 0
-9076 -8735 0
-9076 -9072 0
9076 8735 9072 0
-9077 -9075 0
-9077 -9076 0
9077 9075 9076 0
-9264 8526 0
-9264 -9077 0
9264 -8526 9077 0
-9265 -8526 0
-9265 9077 0
9265 8526 -9077 0
-9266 -9264 0
-9266 -9265 0
9266 9264 9265 0
8525 -17067 0
-8525 17067 0
-9073 -8728 0
-9073 -9069 0
9073 8728 9069 0
-9074 -9072 0
-9074 -9073 0
9074 9072 9073 0
-9261 8525 0
-9261 -9074 0
9261 -8525 9074 0
-9262 -8525 0
-9262 9074 0
9262 8525 -9074 0
-9263 -9261 0
-9263 -9262 0
9263 9261 9262 0
8524 -17066 0
-8524 17066 0
-9070 -8721 0
-9070 -9066 0
9070 8721 9066 0
-9071 -9069 0
-9071 -9070 0
9071 9069 9070 0
-9258 8524 0
-9258 -9071 0
9258 -8524 9071 0
-9259 -8524 0
-9259 9071 0
9259 8524 -9071 0
-9260 -9258 0
-9260 -9259 0
9260 9258 9259 0
8523 -17065 0
-8523 17065 0
-9067 -8714 0
-9067 -9063 0
9067 8714 9063 0
-9068 -9066 0
-9068 -9067 0
9068 9066 9067 0
-9255 8523 0
-9255 -9068 0
9255 -8523 9068 0
-9256 -8523 0
-9256 9068 0
9256 8523 -9068 0
-9257 -9255 0
-9257 -9256 0
9257 9255 9256 0
8522 -17064 0
-8522 17064 0
-9064 -8707 0
-9064 -9060 0
9064 8707 9060 0
-9065 -9063 0
-9065 -9064 0
9065 9063 9064 0
-9252 8522 0
-9252 -9065 0
9252 -8522 9065 0
-9253 -8522 0
-9253 9065 0
9253 8522 -9065 0
-9254 -9252 0
-9254 -9253 0
9254 9252 9253 0
8521 -17063 0
-8521 17063 0
-9061 -8700 0
-9061 -9057 0
9061 8700 9057 0
-9062 -9060 0
-9062 -9061 0
9062 9060 9061 0
-9249 8521 0
-9249 -9062 0
9249 -8521 9062 0
-9250 -8521 0
-9250 9062 0
9250 8521 -9062 0
-9251 -9249 0
-9251 -9250 0
9251 9249 9250 0
8520 -17062 0
-8520 17062 0
-9058 -8693 0
-9058 -9054 0
9058 8693 9054 0
-9059 -9057 0
-9059 -9058 0
9059 9057 9058 0
-9246 8520 0
-9246 -9059 0
9246 -8520 9059 0
-9247 -8520 0
-9247 9059 0
9247 8520 -9059 0
-9248 -9246 0
-9248 -9247 0
9248 9246 9247 0
8519 -17061 0
-8519 17061 0
-9055 -8686 0
-9055 -9051 0
9055 8686 9051 0
-9056 -9054 0
-9056 -9055 0
9056 9054 9055 0
-9243 8519 0
-9243 -9056 0
9243 -8519 9056 0
-9244 -8519 0
-9244 9056 0
9244 8519 -9056 0
-9245 -9243 0
-9245 -9244 0
9245 9243 9244 0
8518 -17060 0
-8518 17060 0
-9052 -8679 0
-9052 -9048 0
9052 8679 9048 0
-9053 -9051 0
-9053 -9052 0
9053 9051 9052 0
-9240 8518 0
-9240 -9053 0
9240 -8518 9053 0
-9241 -8518 0
-9241 9053 0
9241 8518 -9053 0
-9242 -9240 0
-9242 -9241 0
9242 9240 9241 0
8517 -17059 0
-8517 17059 0
-9049 -8672 0
-9049 -9045 0
9049 8672 9045 0
-9050 -9048 0
-9050 -9049 0
9050 9048 9049 0
-9237 8517 0
-9237 -9050 0
9237 -8517 9050 0
-9238 -8517 0
-9238 9050 0
9238 8517 -9050 0
-9239 -9237 0
-9239 -9238 0
9239 9237 9238 0
8516 -17058 0
-8516 17058 0
-9046 -8665 0
-9046 -9042 0
9046 8665 9042 0
-9047 -9045 0
-9047 -9046 0
9047 9045 9046 0
-9234 8516 0
-9234 -9047 0
9234 -8516 9047 0
-9235 -8516 0
-9235 9047 0
9235 8516 -9047 0
-9236 -9234 0
-9236 -9235 0
9236 9234 9235 0
8515 -17057 0
-8515 17057 0
-9043 -8658 0
-9043 -9039 0
9043 8658 9039 0
-9044 -9042 0
-9044 -9043 0
9044 9042 9043 0
-9231 8515 0
-9231 -9044 0
9231 -8515 9044 0
-9232 -8515 0
-9232 9044 0
9232 8515 -9044 0
-9233 -9231 0
-9233 -9232 0
9233 9231 9232 0
8514 -17056 0
-8514 17056 0
-9040 -8651 0
-9040 -9036 0
9040 8651 9036 0
-9041 -9039 0
-9041 -9040 0
9041 9039 9040 0
-9228 8514 0
-9228 -9041 0
9228 -8514 9041 0
-9229 -8514 0
-9229 9041 0
9229 8514 -9041 0
-9230 -9228 0
-9230 -9229 0
9230 9228 9229 0
8513 -17055 0
-8513 17055 0
-9037 -8644 0
-9037 -9033 0
9037 8644 9033 0
-9038 -9036 0
-9038 -9037 0
9038 9036 9037 0
-9225 8513 0
-9225 -9038 0
9225 -8513 9038 0
-9226 -8513 0
-9226 9038 0
9226 8513 -9038 0
-9227 -9225 0
-9227 -9226 0
9227 9225 9226 0
8512 -17054 0
-8512 17054 0
-9034 -8637 0
-9034 -9030 0
9034 8637 9030 0
-9035 -9033 0
-9035 -9034 0
9035 9033 9034 0
-9222 8512 0
-9222 -9035 0
9222 -8512 9035 0
-9223 -8512 0
-9223 9035 0
9223 8512 -9035 0
-9224 -9222 0
-9224 -9223 0
9224 9222 9223 0
8511 -17053 0
-8511 17053 0
-9031 -8630 0
-9031 -9027 0
9031 8630 9027 0
-9032 -9030 0
-9032 -9031 0
9032 9030 9031 0
-9219 8511 0
-9219 -9032 0
9219 -8511 9032 0
-9220 -8511 0
-9220 9032 0
9220 8511 -9032 0
-9221 -9219 0
-9221 -9220 0
9221 9219 9220 0
8510 -17052 0
-8510 17052 0
-9028 -8623 0
-9028 -9024 0
9028 8623 9024 0
-9029 -9027 0
-9029 -9028 0
9029 9027 9028 0
-9216 8510 0
-9216 -9029 0
9216 -8510 9029 0
-9217 -8510 0
-9217 9029 0
9217 8510 -9029 0
-9218 -9216 0
-9218 -9217 0
9218 9216 9217 0
8509 -17051 0
-8509 17051 0
-9025 -8616 0
-9025 -9021 0
9025 8616 9021 0
-9026 -9024 0
-9026 -9025 0
9026 9024 9025 0
-9213 8509 0
-9213 -9026 0
9213 -8509 9026 0
-9214 -8509 0
-9214 9026 0
9214 8509 -9026 0
-9215 -9213 0
-9215 -9214 0
9215 9213 9214 0
8508 -17050 0
-8508 17050 0
-9022 -8609 0
-9022 -9018 0
9022 8609 9018 0
-9023 -9021 0
-9023 -9022 0
9023 9021 9022 0
-9210 8508 0
-9210 -9023 0
9210 -8508 9023 0
-9211 -8508 0
-9211 9023 0
9211 8508 -9023 0
-9212 -9210 0
-9212 -9211 0
9212 9210 9211 0
8507 -17049 0
-8507 17049 0
-9019 -8602 0
-9019 -9015 0
9019 8602 9015 0
-9020 -9018 0
-9020 -9019 0
9020 9018 9019 0
-9207 8507 0
-9207 -9020 0
9207 -8507 9020 0
-9208 -8507 0
-9208 9020 0
9208 8507 -9020 0
-9209 -9207 0
-9209 -9208 0
9209 9207 9208 0
8506 -17048 0
-8506 17048 0
-9016 -8595 0
-9016 -9012 0
9016 8595 9012 0
-9017 -9015 0
-9017 -9016 0
9017 9015 9016 0
-9204 8506 0
-9204 -9017 0
9204 -8506 9017 0
-9205 -8506 0
-9205 9017 0
9205 8506 -9017 0
-9206 -9204 0
-9206 -9205 0
9206 9204 9205 0
8505 -17047 0
-8505 17047 0
-9013 -8588 0
-9013 -9009 0
9013 8588 9009 0
-9014 -9012 0
-9014 -9013 0
9014 9012 9013 0
-9201 8505 0
-9201 -9014 0
9201 -8505 9014 0
-9202 -8505 0
-9202 9014 0
9202 8505 -9014 0
-9203 -9201 0
-9203 -9202 0
9203 9201 9202 0
8504 -17046 0
-8504 17046 0
-9010 -8581 0
-9010 -9006 0
9010 8581 9006 0
-9011 -9009 0
-9011 -9010 0
9011 9009 9010 0
-9198 8504 0
-9198 -9011 0
9198 -8504 9011 0
-9199 -8504 0
-9199 9011 0
9199 8504 -9011 0
-9200 -9198 0
-9200 -9199 0
9200 9198 9199 0
8502 -17044 0
-8502 17044 0
-9004 -6687 0
-9004 -8568 0
9004 6687 8568 0
-9005 -9003 0
-9005 -9004 0
9005 9003 9004 0
-9192 8502 0
-9192 -9005 0
9192 -8502 9005 0
-9193 -8502 0
-9193 9005 0
9193 8502 -9005 0
-9194 -9192 0
-9194 -9193 0
9194 9192 9193 0
8503 -17045 0
-8503 17045 0
-9007 -8574 0
-9007 -9003 0
9007 8574 9003 0
-9008 -9006 0
-9008 -9007 0
9008 9006 9007 0
-9195 8503 0
-9195 -9008 0
9195 -8503 9008 0
-9196 -8503 0
-9196 9008 0
9196 8503 -9008 0
-9197 -9195 0
-9197 -9196 0
9197 9195 9196 0
-9381 9194 0
-9381 9197 0
9381 -9194 -9197 0
-9382 9200 0
-9382 9381 0
9382 -9200 -9381 0
-9383 9203 0
-9383 9382 0
9383 -9203 -9382 0
-9384 9206 0
-9384 9383 0
9384 -9206 -9383 0
-9385 9209 0
-9385 9384 0
9385 -9209 -9384 0
-9386 9212 0
-9386 9385 0
9386 -9212 -9385 0
-9387 9215 0
-9387 9386 0
9387 -9215 -9386 0
-9388 9218 0
-9388 9387 0
9388 -9218 -9387 0
-9389 9221 0
-9389 9388 0
9389 -9221 -9388 0
-9390 9224 0
-9390 9389 0
9390 -9224 -9389 0
-9391 9227 0
-9391 9390 0
9391 -9227 -9390 0
-9392 9230 0
-9392 9391 0
9392 -9230 -9391 0
-9393 9233 0
-9393 9392 0
9393 -9233 -9392 0
-9394 9236 0
-9394 9393 0
9394 -9236 -9393 0
-9395 9239 0
-9395 9394 0
9395 -9239 -9394 0
-9396 9242 0
-9396 9395 0
9396 -9242 -9395 0
-9397 9245 0
-9397 9396 0
9397 -9245 -9396 0
-9398 9248 0
-9398 9397 0
9398 -9248 -9397 0
-9399 9251 0
-9399 9398 0
9399 -9251 -9398 0
-9400 9254 0
-9400 9399 0
9400 -9254 -9399 0
-9401 9257 0
-9401 9400 0
9401 -9257 -9400 0
-9402 9260 0
-9402 9401 0
9402 -9260 -9401 0
-9403 9263 0
-9403 9402 0
9403 -9263 -9402 0
-9404 9266 0
-9404 9403 0
9404 -9266 -9403 0
-9405 9269 0
-9405 9404 0
9405 -9269 -9404 0
-9406 9272 0
-9406 9405 0
9406 -9272 -9405 0
-9407 9275 0
-9407 9406 0
9407 -9275 -9406 0
-9408 9278 0
-9408 9407 0
9408 -9278 -9407 0
-9409 9281 0
-9409 9408 0
9409 -9281 -9408 0
-9410 9284 0
-9410 9409 0
9410 -9284 -9409 0
-9411 9287 0
-9411 9410 0
9411 -9287 -9410 0
-9412 9290 0
-9412 9411 0
9412 -9290 -9411 0
-9413 9293 0
-9413 9412 0
9413 -9293 -9412 0
-9414 9296 0
-9414 9413 0
9414 -9296 -9413 0
-9415 9299 0
-9415 9414 0
9415 -9299 -9414 0
-9416 9302 0
-9416 9415 0
9416 -9302 -9415 0
-9417 9305 0
-9417 9416 0
9417 -9305 -9416 0
-9418 9308 0
-9418 9417 0
9418 -9308 -9417 0
-9419 9311 0
-9419 9418 0
9419 -9311 -9418 0
-9420 9314 0
-9420 9419 0
9420 -9314 -9419 0
-9421 9317 0
-9421 9420 0
9421 -9317 -9420 0
-9422 9320 0
-9422 9421 0
9422 -9320 -9421 0
-9423 9323 0
-9423 9422 0
9423 -9323 -9422 0
-9424 9326 0
-9424 9423 0
9424 -9326 -9423 0
-9425 9329 0
-9425 9424 0
9425 -9329 -9424 0
-9426 9332 0
-9426 9425 0
9426 -9332 -9425 0
-9427 9335 0
-9427 9426 0
9427 -9335 -9426 0
-9428 9338 0
-9428 9427 0
9428 -9338 -9427 0
-9429 9341 0
-9429 9428 0
9429 -9341 -9428 0
-9430 9344 0
-9430 9429 0
9430 -9344 -9429 0
-9431 9347 0
-9431 9430 0
9431 -9347 -9430 0
-9432 9350 0
-9432 9431 0
9432 -9350 -9431 0
-9433 9353 0
-9433 9432 0
9433 -9353 -9432 0
-9434 9356 0
-9434 9433 0
9434 -9356 -9433 0
-9435 9359 0
-9435 9434 0
9435 -9359 -9434 0
-9436 9362 0
-9436 9435 0
9436 -9362 -9435 0
-9437 9365 0
-9437 9436 0
9437 -9365 -9436 0
-9438 9368 0
-9438 9437 0
9438 -9368 -9437 0
-9439 9371 0
-9439 9438 0
9439 -9371 -9438 0
-9440 9374 0
-9440 9439 0
9440 -9374 -9439 0
-9441 9377 0
-9441 9440 0
9441 -9377 -9440 0
-9442 9380 0
-9442 9441 0
9442 -9380 -9441 0
-9443 -8565 0
-9443 9442 0
9443 8565 -9442 0
-9444 7896 0
-9444 -9443 0
9444 -7896 9443 0
-9445 8501 0
-9445 -9444 0
9445 -8501 9444 0
-9632 -8001 0
-9632 8564 0
9632 8001 -8564 0
-9633 8001 0
-9633 -8564 0
9633 -8001 8564 0
-9634 -9632 0
-9634 -9633 0
9634 9632 9633 0
-9629 -8000 0
-9629 8563 0
9629 8000 -8563 0
-9630 8000 0
-9630 -8563 0
9630 -8000 8563 0
-9631 -9629 0
-9631 -9630 0
9631 9629 9630 0
-9626 -7999 0
-9626 8562 0
9626 7999 -8562 0
-9627 7999 0
-9627 -8562 0
9627 -7999 8562 0
-9628 -9626 0
-9628 -9627 0
9628 9626 9627 0
-9623 -7998 0
-9623 8561 0
9623 7998 -8561 0
-9624 7998 0
-9624 -8561 0
9624 -7998 8561 0
-9625 -9623 0
-9625 -9624 0
9625 9623 9624 0
-9620 -7997 0
-9620 8560 0
9620 7997 -8560 0
-9621 7997 0
-9621 -8560 0
9621 -7997 8560 0
-9622 -9620 0
-9622 -9621 0
9622 9620 9621 0
-9617 -7996 0
-9617 8559 0
9617 7996 -8559 0
-9618 7996 0
-9618 -8559 0
9618 -7996 8559 0
-9619 -9617 0
-9619 -9618 0
9619 9617 9618 0
-9614 -7995 0
-9614 8558 0
9614 7995 -8558 0
-9615 7995 0
-9615 -8558 0
9615 -7995 8558 0
-9616 -9614 0
-9616 -9615 0
9616 9614 9615 0
-9611 -7994 0
-9611 8557 0
9611 7994 -8557 0
-9612 7994 0
-9612 -8557 0
9612 -7994 8557 0
-9613 -9611 0
-9613 -9612 0
9613 9611 9612 0
-9608 -7993 0
-9608 8556 0
9608 7993 -8556 0
-9609 7993 0
-9609 -8556 0
9609 -7993 8556 0
-9610 -9608 0
-9610 -9609 0
9610 9608 9609 0
-9605 -7992 0
-9605 8555 0
9605 7992 -8555 0
-9606 7992 0
-9606 -8555 0
9606 -7992 8555 0
-9607 -9605 0
-9607 -9606 0
9607 9605 9606 0
-9602 -7991 0
-9602 8554 0
9602 7991 -8554 0
-9603 7991 0
-9603 -8554 0
9603 -7991 8554 0
-9604 -9602 0
-9604 -9603 0
9604 9602 9603 0
-9599 -7990 0
-9599 8553 0
9599 7990 -8553 0
-9600 7990 0
-9600 -8553 0
9600 -7990 8553 0
-9601 -9599 0
-9601 -9600 0
9601 9599 9600 0
-9596 -7989 0
-9596 8552 0
9596 7989 -8552 0
-9597 7989 0
-9597 -8552 0
9597 -7989 8552 0
-9598 -9596 0
-9598 -9597 0
9598 9596 9597 0
-9593 -7988 0
-9593 8551 0
9593 7988 -8551 0
-9594 7988 0
-9594 -8551 0
9594 -7988 8551 0
-9595 -9593 0
-9595 -9594 0
9595 9593 9594 0
-9590 -7987 0
-9590 8550 0
9590 7987 -8550 0
-9591 7987 0
-9591 -8550 0
9591 -7987 8550 0
-9592 -9590 0
-9592 -9591 0
9592 9590 9591 0
-9587 -7986 0
-9587 8549 0
9587 7986 -8549 0
-9588 7986 0
-9588 -8549 0
9588 -7986 8549 0
-9589 -9587 0
-9589 -9588 0
9589 9587 9588 0
-9584 -7985 0
-9584 8548 0
9584 7985 -8548 0
-9585 7985 0
-9585 -8548 0
9585 -7985 8548 0
-9586 -9584 0
-9586 -9585 0
9586 9584 9585 0
-9581 -7984 0
-9581 8547 0
9581 7984 -8547 0
-9582 7984 0
-9582 -8547 0
9582 -7984 8547 0
-9583 -9581 0
-9583 -9582 0
9583 9581 9582 0
-9578 -7983 0
-9578 8546 0
9578 7983 -8546 0
-9579 7983 0
-9579 -8546 0
9579 -7983 8546 0
-9580 -9578 0
-9580 -9579 0
9580 9578 9579 0
-9575 -7982 0
-9575 8545 0
9575 7982 -8545 0
-9576 7982 0
-9576 -8545 0
9576 -7982 8545 0
-9577 -9575 0
-9577 -9576 0
9577 9575 9576 0
-9572 -7981 0
-9572 8544 0
9572 7981 -8544 0
-9573 7981 0
-9573 -8544 0
9573 -7981 8544 0
-9574 -9572 0
-9574 -9573 0
9574 9572 9573 0
-9569 -7980 0
-9569 8543 0
9569 7980 -8543 0
-9570 7980 0
-9570 -8543 0
9570 -7980 8543 0
-9571 -9569 0
-9571 -9570 0
9571 9569 9570 0
-9566 -7979 0
-9566 8542 0
9566 7979 -8542 0
-9567 7979 0
-9567 -8542 0
9567 -7979 8542 0
-9568 -9566 0
-9568 -9567 0
9568 9566 9567 0
-9563 -7978 0
-9563 8541 0
9563 7978 -8541 0
-9564 7978 0
-9564 -8541 0
9564 -7978 8541 0
-9565 -9563 0
-9565 -9564 0
9565 9563 9564 0
-9560 -7977 0
-9560 8540 0
9560 7977 -8540 0
-9561 7977 0
-9561 -8540 0
9561 -7977 8540 0
-9562 -9560 0
-9562 -9561 0
9562 9560 9561 0
-9557 -7976 0
-9557 8539 0
9557 7976 -8539 0
-9558 7976 0
-9558 -8539 0
9558 -7976 8539 0
-9559 -9557 0
-9559 -9558 0
9559 9557 9558 0
-9554 -7975 0
-9554 8538 0
9554 7975 -8538 0
-9555 7975 0
-9555 -8538 0
9555 -7975 8538 0
-9556 -9554 0
-9556 -9555 0
9556 9554 9555 0
-9551 -7974 0
-9551 8537 0
9551 7974 -8537 0
-9552 7974 0
-9552 -8537 0
9552 -7974 8537 0
-9553 -9551 0
-9553 -9552 0
9553 9551 9552 0
-9548 -7973 0
-9548 8536 0
9548 7973 -8536 0
-9549 7973 0
-9549 -8536 0
9549 -7973 8536 0
-9550 -9548 0
-9550 -9549 0
9550 9548 9549 0
-9545 -7972 0
-9545 8535 0
9545 7972 -8535 0
-9546 7972 0
-9546 -8535 0
9546 -7972 8535 0
-9547 -9545 0
-9547 -9546 0
9547 9545 9546 0
-9542 -7971 0
-9542 8534 0
9542 7971 -8534 0
-9543 7971 0
-9543 -8534 0
9543 -7971 8534 0
-9544 -9542 0
-9544 -9543 0
9544 9542 9543 0
-9539 -7970 0
-9539 8533 0
9539 7970 -8533 0
-9540 7970 0
-9540 -8533 0
9540 -7970 8533 0
-9541 -9539 0
-9541 -9540 0
9541 9539 9540 0
-9536 -7969 0
-9536 8532 0
9536 7969 -8532 0
-9537 7969 0
-9537 -8532 0
9537 -7969 8532 0
-9538 -9536 0
-9538 -9537 0
9538 9536 9537 0
-9533 -7968 0
-9533 8531 0
9533 7968 -8531 0
-9534 7968 0
-9534 -8531 0
9534 -7968 8531 0
-9535 -9533 0
-9535 -9534 0
9535 9533 9534 0
-9530 -7967 0
-9530 8530 0
9530 7967 -8530 0
-9531 7967 0
-9531 -8530 0
9531 -7967 8530 0
-9532 -9530 0
-9532 -9531 0
9532 9530 9531 0
-9527 -7966 0
-9527 8529 0
9527 7966 -8529 0
-9528 7966 0
-9528 -8529 0
9528 -7966 8529 0
-9529 -9527 0
-9529 -9528 0
9529 9527 9528 0
-9524 -7965 0
-9524 8528 0
9524 7965 -8528 0
-9525 7965 0
-9525 -8528 0
9525 -7965 8528 0
-9526 -9524 0
-9526 -9525 0
9526 9524 9525 0
-9521 -7964 0
-9521 8527 0
9521 7964 -8527 0
-9522 7964 0
-9522 -8527 0
9522 -7964 8527 0
-9523 -9521 0
-9523 -9522 0
9523 9521 9522 0
-9518 -7963 0
-9518 8526 0
9518 7963 -8526 0
-9519 7963 0
-9519 -8526 0
9519 -7963 8526 0
-9520 -9518 0
-9520 -9519 0
9520 9518 9519 0
-9515 -7962 0
-9515 8525 0
9515 7962 -8525 0
-9516 7962 0
-9516 -8525 0
9516 -7962 8525 0
-9517 -9515 0
-9517 -9516 0
9517 9515 9516 0
-9512 -7961 0
-9512 8524 0
9512 7961 -8524 0
-9513 7961 0
-9513 -8524 0
9513 -7961 8524 0
-9514 -9512 0
-9514 -9513 0
9514 9512 9513 0
-9509 -7960 0
-9509 8523 0
9509 7960 -8523 0
-9510 7960 0
-9510 -8523 0
9510 -7960 8523 0
-9511 -9509 0
-9511 -9510 0
9511 9509 9510 0
-9506 -7959 0
-9506 8522 0
9506 7959 -8522 0
-9507 7959 0
-9507 -8522 0
9507 -7959 8522 0
-9508 -9506 0
-9508 -9507 0
9508 9506 9507 0
-9503 -7958 0
-9503 8521 0
9503 7958 -8521 0
-9504 7958 0
-9504 -8521 0
9504 -7958 8521 0
-9505 -9503 0
-9505 -9504 0
9505 9503 9504 0
-9500 -7957 0
-9500 8520 0
9500 7957 -8520 0
-9501 7957 0
-9501 -8520 0
9501 -7957 8520 0
-9502 -9500 0
-9502 -9501 0
9502 9500 9501 0
-9497 -7956 0
-9497 8519 0
9497 7956 -8519 0
-9498 7956 0
-9498 -8519 0
9498 -7956 8519 0
-9499 -9497 0
-9499 -9498 0
9499 9497 9498 0
-9494 -7955 0
-9494 8518 0
9494 7955 -8518 0
-9495 7955 0
-9495 -8518 0
9495 -7955 8518 0
-9496 -9494 0
-9496 -9495 0
9496 9494 9495 0
-9491 -7954 0
-9491 8517 0
9491 7954 -8517 0
-9492 7954 0
-9492 -8517 0
9492 -7954 8517 0
-9493 -9491 0
-9493 -9492 0
9493 9491 9492 0
-9488 -7953 0
-9488 8516 0
9488 7953 -8516 0
-9489 7953 0
-9489 -8516 0
9489 -7953 8516 0
-9490 -9488 0
-9490 -9489 0
9490 9488 9489 0
-9485 -7952 0
-9485 8515 0
9485 7952 -8515 0
-9486 7952 0
-9486 -8515 0
9486 -7952 8515 0
-9487 -9485 0
-9487 -9486 0
9487 9485 9486 0
-9482 -7951 0
-9482 8514 0
9482 7951 -8514 0
-9483 7951 0
-9483 -8514 0
9483 -7951 8514 0
-9484 -9482 0
-9484 -9483 0
9484 9482 9483 0
-9479 -7950 0
-9479 8513 0
9479 7950 -8513 0
-9480 7950 0
-9480 -8513 0
9480 -7950 8513 0
-9481 -9479 0
-9481 -9480 0
9481 9479 9480 0
-9476 -7949 0
-9476 8512 0
9476 7949 -8512 0
-9477 7949 0
-9477 -8512 0
9477 -7949 8512 0
-9478 -9476 0
-9478 -9477 0
9478 9476 9477 0
-9473 -7948 0
-9473 8511 0
9473 7948 -8511 0
-9474 7948 0
-9474 -8511 0
9474 -7948 8511 0
-9475 -9473 0
-9475 -9474 0
9475 9473 9474 0
-9470 -7947 0
-9470 8510 0
9470 7947 -8510 0
-9471 7947 0
-9471 -8510 0
9471 -7947 8510 0
-9472 -9470 0
-9472 -9471 0
9472 9470 9471 0
-9467 -7946 0
-9467 8509 0
9467 7946 -8509 0
-9468 7946 0
-9468 -8509 0
9468 -7946 8509 0
-9469 -9467 0
-9469 -9468 0
9469 9467 9468 0
-9464 -7945 0
-9464 8508 0
9464 7945 -8508 0
-9465 7945 0
-9465 -8508 0
9465 -7945 8508 0
-9466 -9464 0
-9466 -9465 0
9466 9464 9465 0
-9461 -7944 0
-9461 8507 0
9461 7944 -8507 0
-9462 7944 0
-9462 -8507 0
9462 -7944 8507 0
-9463 -9461 0
-9463 -9462 0
9463 9461 9462 0
-9458 -7943 0
-9458 8506 0
9458 7943 -8506 0
-9459 7943 0
-9459 -8506 0
9459 -7943 8506 0
-9460 -9458 0
-9460 -9459 0
9460 9458 9459 0
-9455 -7942 0
-9455 8505 0
9455 7942 -8505 0
-9456 7942 0
-9456 -8505 0
9456 -7942 8505 0
-9457 -9455 0
-9457 -9456 0
9457 9455 9456 0
-9452 -7941 0
-9452 8504 0
9452 7941 -8504 0
-9453 7941 0
-9453 -8504 0
9453 -7941 8504 0
-9454 -9452 0
-9454 -9453 0
9454 9452 9453 0
-9446 -7939 0
-9446 8502 0
9446 7939 -8502 0
-9447 7939 0
-9447 -8502 0
9447 -7939 8502 0
-9448 -9446 0
-9448 -9447 0
9448 9446 9447 0
-9449 -7940 0
-9449 8503 0
9449 7940 -8503 0
-9450 7940 0
-9450 -8503 0
9450 -7940 8503 0
-9451 -9449 0
-9451 -9450 0
9451 9449 9450 0
-9635 9448 0
-9635 9451 0
9635 -9448 -9451 0
-9636 9454 0
-9636 9635 0
9636 -9454 -9635 0
-9637 9457 0
-9637 9636 0
9637 -9457 -9636 0
-9638 9460 0
-9638 9637 0
9638 -9460 -9637 0
-9639 9463 0
-9639 9638 0
9639 -9463 -9638 0
-9640 9466 0
-9640 9639 0
9640 -9466 -9639 0
-9641 9469 0
-9641 9640 0
9641 -9469 -9640 0
-9642 9472 0
-9642 9641 0
9642 -9472 -9641 0
-9643 9475 0
-9643 9642 0
9643 -9475 -9642 0
-9644 9478 0
-9644 9643 0
9644 -9478 -9643 0
-9645 9481 0
-9645 9644 0
9645 -9481 -9644 0
-9646 9484 0
-9646 9645 0
9646 -9484 -9645 0
-9647 9487 0
-9647 9646 0
9647 -9487 -9646 0
-9648 9490 0
-9648 9647 0
9648 -9490 -9647 0
-9649 9493 0
-9649 9648 0
9649 -9493 -9648 0
-9650 9496 0
-9650 9649 0
9650 -9496 -9649 0
-9651 9499 0
-9651 9650 0
9651 -9499 -9650 0
-9652 9502 0
-9652 9651 0
9652 -9502 -9651 0
-9653 9505 0
-9653 9652 0
9653 -9505 -9652 0
-9654 9508 0
-9654 9653 0
9654 -9508 -9653 0
-9655 9511 0
-9655 9654 0
9655 -9511 -9654 0
-9656 9514 0
-9656 9655 0
9656 -9514 -9655 0
-9657 9517 0
-9657 9656 0
9657 -9517 -9656 0
-9658 9520 0
-9658 9657 0
9658 -9520 -9657 0
-9659 9523 0
-9659 9658 0
9659 -9523 -9658 0
-9660 9526 0
-9660 9659 0
9660 -9526 -9659 0
-9661 9529 0
-9661 9660 0
9661 -9529 -9660 0
-9662 9532 0
-9662 9661 0
9662 -9532 -9661 0
-9663 9535 0
-9663 9662 0
9663 -9535 -9662 0
-9664 9538 0
-9664 9663 0
9664 -9538 -9663 0
-9665 9541 0
-9665 9664 0
9665 -9541 -9664 0
-9666 9544 0
-9666 9665 0
9666 -9544 -9665 0
-9667 9547 0
-9667 9666 0
9667 -9547 -9666 0
-9668 9550 0
-9668 9667 0
9668 -9550 -9667 0
-9669 9553 0
-9669 9668 0
9669 -9553 -9668 0
-9670 9556 0
-9670 9669 0
9670 -9556 -9669 0
-9671 9559 0
-9671 9670 0
9671 -9559 -9670 0
-9672 9562 0
-9672 9671 0
9672 -9562 -9671 0
-9673 9565 0
-9673 9672 0
9673 -9565 -9672 0
-9674 9568 0
-9674 9673 0
9674 -9568 -9673 0
-9675 9571 0
-9675 9674 0
9675 -9571 -9674 0
-9676 9574 0
-9676 9675 0
9676 -9574 -9675 0
-9677 9577 0
-9677 9676 0
9677 -9577 -9676 0
-9678 9580 0
-9678 9677 0
9678 -9580 -9677 0
-9679 9583 0
-9679 9678 0
9679 -9583 -9678 0
-9680 9586 0
-9680 9679 0
9680 -9586 -9679 0
-9681 9589 0
-9681 9680 0
9681 -9589 -9680 0
-9682 9592 0
-9682 9681 0
9682 -9592 -9681 0
-9683 9595 0
-9683 9682 0
9683 -9595 -9682 0
-9684 9598 0
-9684 9683 0
9684 -9598 -9683 0
-9685 9601 0
-9685 9684 0
9685 -9601 -9684 0
-9686 9604 0
-9686 9685 0
9686 -9604 -9685 0
-9687 9607 0
-9687 9686 0
9687 -9607 -9686 0
-9688 9610 0
-9688 9687 0
9688 -9610 -9687 0
-9689 9613 0
-9689 9688 0
9689 -9613 -9688 0
-9690 9616 0
-9690 9689 0
9690 -9616 -9689 0
-9691 9619 0
-9691 9690 0
9691 -9619 -9690 0
-9692 9622 0
-9692 9691 0
9692 -9622 -9691 0
-9693 9625 0
-9693 9692 0
9693 -9625 -9692 0
-9694 9628 0
-9694 9693 0
9694 -9628 -9693 0
-9695 9631 0
-9695 9694 0
9695 -9631 -9694 0
-9696 9634 0
-9696 9695 0
9696 -9634 -9695 0
-9697 -8565 0
-9697 9696 0
9697 8565 -9696 0
-9698 -7896 0
-9698 -9697 0
9698 7896 9697 0
-9699 9445 0
-9699 -9698 0
9699 -9445 9698 0
9700 -17108 0
-9700 17108 0
-9701 -7193 0
-9701 9700 0
9701 7193 -9700 0
-9702 7193 0
-9702 -9700 0
9702 -7193 9700 0
-9703 -9701 0
-9703 -9702 0
9703 9701 9702 0
-9704 6081 0
-9704 -9703 0
9704 -6081 9703 0
-9705 9699 0
-9705 -9704 0
9705 -9699 9704 0
-9706 -6125 0
-9706 9700 0
9706 6125 -9700 0
-9707 6125 0
-9707 -9700 0
9707 -6125 9700 0
-9708 -9706 0
-9708 -9707 0
9708 9706 9707 0
-9709 -6081 0
-9709 -9708 0
9709 6081 9708 0
-9710 9705 0
-9710 -9709 0
9710 -9705 9709 0
9711 -17109 0
-9711 17109 0
-9712 -9005 0
-9712 9711 0
9712 9005 -9711 0
-9713 9005 0
-9713 -9711 0
9713 -9005 9711 0
-9714 -9712 0
-9714 -9713 0
9714 9712 9713 0
-9715 7896 0
-9715 -9714 0
9715 -7896 9714 0
-9716 9710 0
-9716 -9715 0
9716 -9710 9715 0
-9717 -9700 0
-9717 9711 0
9717 9700 -9711 0
-9718 9700 0
-9718 -9711 0
9718 -9700 9711 0
-9719 -9717 0
-9719 -9718 0
9719 9717 9718 0
-9720 -7896 0
-9720 -9719 0
9720 7896 9719 0
-9721 9716 0
-9721 -9720 0
9721 -9716 9720 0
9731 -17119 0
-9731 17119 0
9730 -17118 0
-9730 17118 0
9729 -17117 0
-9729 17117 0
9728 -17116 0
-9728 17116 0
9727 -17115 0
-9727 17115 0
9726 -17114 0
-9726 17114 0
9725 -17113 0
-9725 17113 0
9724 -17112 0
-9724 17112 0
9722 -17110 0
-9722 17110 0
9723 -17111 0
-9723 17111 0
-9732 9722 0
-9732 -9723 0
9732 -9722 9723 0
-9733 -9724 0
-9733 9732 0
9733 9724 -9732 0
-9734 -9725 0
-9734 9733 0
9734 9725 -9733 0
-9735 -9726 0
-9735 9734 0
9735 9726 -9734 0
-9736 -9727 0
-9736 9735 0
9736 9727 -9735 0
-9737 -9728 0
-9737 9736 0
9737 9728 -9736 0
-9738 -9729 0
-9738 9737 0
9738 9729 -9737 0
-9739 -9730 0
-9739 9738 0
9739 9730 -9738 0
-9740 -9731 0
-9740 9739 0
9740 9731 -9739 0
-9741 9711 0
-9741 -9740 0
9741 -9711 9740 0
-9742 9721 0
-9742 -9741 0
9742 -9721 9741 0
-9743 -9722 0
-9743 -9723 0
9743 9722 9723 0
-9744 -9724 0
-9744 9743 0
9744 9724 -9743 0
-9745 -9725 0
-9745 9744 0
9745 9725 -9744 0
-9746 -9726 0
-9746 9745 0
9746 9726 -9745 0
-9747 -9727 0
-9747 9746 0
9747 9727 -9746 0
-9748 -9728 0
-9748 9747 0
9748 9728 -9747 0
-9749 -9729 0
-9749 9748 0
9749 9729 -9748 0
-9750 -9730 0
-9750 9749 0
9750 9730 -9749 0
-9751 -9731 0
-9751 9750 0
9751 9731 -9750 0
-9752 -9711 0
-9752 -9751 0
9752 9711 9751 0
-9753 9742 0
-9753 -9752 0
9753 -9742 9752 0
9816 -17182 0
-9816 17182 0
9815 -17181 0
-9815 17181 0
-10000 -9191 0
-10000 9815 0
10000 9191 -9815 0
-10001 9191 0
-10001 -9815 0
10001 -9191 9815 0
-10002 -10000 0
-10002 -10001 0
10002 10000 10001 0
9814 -17180 0
-9814 17180 0
-9997 -9188 0
-9997 9814 0
9997 9188 -9814 0
-9998 9188 0
-9998 -9814 0
9998 -9188 9814 0
-9999 -9997 0
-9999 -9998 0
9999 9997 9998 0
9813 -17179 0
-9813 17179 0
-9994 -9185 0
-9994 9813 0
9994 9185 -9813 0
-9995 9185 0
-9995 -9813 0
9995 -9185 9813 0
-9996 -9994 0
-9996 -9995 0
9996 9994 9995 0
9812 -17178 0
-9812 17178 0
-9991 -9182 0
-9991 9812 0
9991 9182 -9812 0
-9992 9182 0
-9992 -9812 0
9992 -9182 9812 0
-9993 -9991 0
-9993 -9992 0
9993 9991 9992 0
9811 -17177 0
-9811 17177 0
-9988 -9179 0
-9988 9811 0
9988 9179 -9811 0
-9989 9179 0
-9989 -9811 0
9989 -9179 9811 0
-9990 -9988 0
-9990 -9989 0
9990 9988 9989 0
9810 -17176 0
-9810 17176 0
-9985 -9176 0
-9985 9810 0
9985 9176 -9810 0
-9986 9176 0
-9986 -9810 0
9986 -9176 9810 0
-9987 -9985 0
-9987 -9986 0
9987 9985 9986 0
9809 -17175 0
-9809 17175 0
-9982 -9173 0
-9982 9809 0
9982 9173 -9809 0
-9983 9173 0
-9983 -9809 0
9983 -9173 9809 0
-9984 -9982 0
-9984 -9983 0
9984 9982 9983 0
9808 -17174 0
-9808 17174 0
-9979 -9170 0
-9979 9808 0
9979 9170 -9808 0
-9980 9170 0
-9980 -9808 0
9980 -9170 9808 0
-9981 -9979 0
-9981 -9980 0
9981 9979 9980 0
9807 -17173 0
-9807 17173 0
-9976 -9167 0
-9976 9807 0
9976 9167 -9807 0
-9977 9167 0
-9977 -9807 0
9977 -9167 9807 0
-9978 -9976 0
-9978 -9977 0
9978 9976 9977 0
9806 -17172 0
-9806 17172 0
-9973 -9164 0
-9973 9806 0
9973 9164 -9806 0
-9974 9164 0
-9974 -9806 0
9974 -9164 9806 0
-9975 -9973 0
-9975 -9974 0
9975 9973 9974 0
9805 -17171 0
-9805 17171 0
-9970 -9161 0
-9970 9805 0
9970 9161 -9805 0
-9971 9161 0
-9971 -9805 0
9971 -9161 9805 0
-9972 -9970 0
-9972 -9971 0
9972 9970 9971 0
9804 -17170 0
-9804 17170 0
-9967 -9158 0
-9967 9804 0
9967 9158 -9804 0
-9968 9158 0
-9968 -9804 0
9968 -9158 9804 0
-9969 -9967 0
-9969 -9968 0
9969 9967 9968 0
9803 -17169 0
-9803 17169 0
-9964 -9155 0
-9964 9803 0
9964 9155 -9803 0
-9965 9155 0
-9965 -9803 0
9965 -9155 9803 0
-9966 -9964 0
-9966 -9965 0
9966 9964 9965 0
9802 -17168 0
-9802 17168 0
-9961 -9152 0
-9961 9802 0
9961 9152 -9802 0
-9962 9152 0
-9962 -9802 0
9962 -9152 9802 0
-9963 -9961 0
-9963 -9962 0
9963 9961 9962 0
9801 -17167 0
-9801 17167 0
-9958 -9149 0
-9958 9801 0
9958 9149 -9801 0
-9959 9149 0
-9959 -9801 0
9959 -9149 9801 0
-9960 -9958 0
-9960 -9959 0
9960 9958 9959 0
9800 -17166 0
-9800 17166 0
-9955 -9146 0
-9955 9800 0
9955 9146 -9800 0
-9956 9146 0
-9956 -9800 0
9956 -9146 9800 0
-9957 -9955 0
-9957 -9956 0
9957 9955 9956 0
9799 -17165 0
-9799 17165 0
-9952 -9143 0
-9952 9799 0
9952 9143 -9799 0
-9953 9143 0
-9953 -9799 0
9953 -9143 9799 0
-9954 -9952 0
-9954 -9953 0
9954 9952 9953 0
9798 -17164 0
-9798 17164 0
-9949 -9140 0
-9949 9798 0
9949 9140 -9798 0
-9950 9140 0
-9950 -9798 0
9950 -9140 9798 0
-9951 -9949 0
-9951 -9950 0
9951 9949 9950 0
9797 -17163 0
-9797 17163 0
-9946 -9137 0
-9946 9797 0
9946 9137 -9797 0
-9947 9137 0
-9947 -9797 0
9947 -9137 9797 0
-9948 -9946 0
-9948 -9947 0
9948 9946 9947 0
9796 -17162 0
-9796 17162 0
-9943 -9134 0
-9943 9796 0
9943 9134 -9796 0
-9944 9134 0
-9944 -9796 0
9944 -9134 9796 0
-9945 -9943 0
-9945 -9944 0
9945 9943 9944 0
9795 -17161 0
-9795 17161 0
-9940 -9131 0
-9940 9795 0
9940 9131 -9795 0
-9941 9131 0
-9941 -9795 0
9941 -9131 9795 0
-9942 -9940 0
-9942 -9941 0
9942 9940 9941 0
9794 -17160 0
-9794 17160 0
-9937 -9128 0
-9937 9794 0
9937 9128 -9794 0
-9938 9128 0
-9938 -9794 0
9938 -9128 9794 0
-9939 -9937 0
-9939 -9938 0
9939 9937 9938 0
9793 -17159 0
-9793 17159 0
-9934 -9125 0
-9934 9793 0
9934 9125 -9793 0
-9935 9125 0
-9935 -9793 0
9935 -9125 9793 0
-9936 -9934 0
-9936 -9935 0
9936 9934 9935 0
9792 -17158 0
-9792 17158 0
-9931 -9122 0
-9931 9792 0
9931 9122 -9792 0
-9932 9122 0
-9932 -9792 0
9932 -9122 9792 0
-9933 -9931 0
-9933 -9932 0
9933 9931 9932 0
9791 -17157 0
-9791 17157 0
-9928 -9119 0
-9928 9791 0
9928 9119 -9791 0
-9929 9119 0
-9929 -9791 0
9929 -9119 9791 0
-9930 -9928 0
-9930 -9929 0
9930 9928 9929 0
9790 -17156 0
-9790 17156 0
-9925 -9116 0
-9925 9790 0
9925 9116 -9790 0
-9926 9116 0
-9926 -9790 0
9926 -9116 9790 0
-9927 -9925 0
-9927 -9926 0
9927 9925 9926 0
9789 -17155 0
-9789 17155 0
-9922 -9113 0
-9922 9789 0
9922 9113 -9789 0
-9923 9113 0
-9923 -9789 0
9923 -9113 9789 0
-9924 -9922 0
-9924 -9923 0
9924 9922 9923 0
9788 -17154 0
-9788 17154 0
-9919 -9110 0
-9919 9788 0
9919 9110 -9788 0
-9920 9110 0
-9920 -9788 0
9920 -9110 9788 0
-9921 -9919 0
-9921 -9920 0
9921 9919 9920 0
9787 -17153 0
-9787 17153 0
-9916 -9107 0
-9916 9787 0
9916 9107 -9787 0
-9917 9107 0
-9917 -9787 0
9917 -9107 9787 0
-9918 -9916 0
-9918 -9917 0
9918 9916 9917 0
9786 -17152 0
-9786 17152 0
-9913 -9104 0
-9913 9786 0
9913 9104 -9786 0
-9914 9104 0
-9914 -9786 0
9914 -9104 9786 0
-9915 -9913 0
-9915 -9914 0
9915 9913 9914 0
9785 -17151 0
-9785 17151 0
-9910 -9101 0
-9910 9785 0
9910 9101 -9785 0
-9911 9101 0
-9911 -9785 0
9911 -9101 9785 0
-9912 -9910 0
-9912 -9911 0
9912 9910 9911 0
9784 -17150 0
-9784 17150 0
-9907 -9098 0
-9907 9784 0
9907 9098 -9784 0
-9908 9098 0
-9908 -9784 0
9908 -9098 9784 0
-9909 -9907 0
-9909 -9908 0
9909 9907 9908 0
9783 -17149 0
-9783 17149 0
-9904 -9095 0
-9904 9783 0
9904 9095 -9783 0
-9905 9095 0
-9905 -9783 0
9905 -9095 9783 0
-9906 -9904 0
-9906 -9905 0
9906 9904 9905 0
9782 -17148 0
-9782 17148 0
-9901 -9092 0
-9901 9782 0
9901 9092 -9782 0
-9902 9092 0
-9902 -9782 0
9902 -9092 9782 0
-9903 -9901 0
-9903 -9902 0
9903 9901 9902 0
9781 -17147 0
-9781 17147 0
-9898 -9089 0
-9898 9781 0
9898 9089 -9781 0
-9899 9089 0
-9899 -9781 0
9899 -9089 9781 0
-9900 -9898 0
-9900 -9899 0
9900 9898 9899 0
9780 -17146 0
-9780 17146 0
-9895 -9086 0
-9895 9780 0
9895 9086 -9780 0
-9896 9086 0
-9896 -9780 0
9896 -9086 9780 0
-9897 -9895 0
-9897 -9896 0
9897 9895 9896 0
9779 -17145 0
-9779 17145 0
-9892 -9083 0
-9892 9779 0
9892 9083 -9779 0
-9893 9083 0
-9893 -9779 0
9893 -9083 9779 0
-9894 -9892 0
-9894 -9893 0
9894 9892 9893 0
9778 -17144 0
-9778 17144 0
-9889 -9080 0
-9889 9778 0
9889 9080 -9778 0
-9890 9080 0
-9890 -9778 0
9890 -9080 9778 0
-9891 -9889 0
-9891 -9890 0
9891 9889 9890 0
9777 -17143 0
-9777 17143 0
-9886 -9077 0
-9886 9777 0
9886 9077 -9777 0
-9887 9077 0
-9887 -9777 0
9887 -9077 9777 0
-9888 -9886 0
-9888 -9887 0
9888 9886 9887 0
9776 -17142 0
-9776 17142 0
-9883 -9074 0
-9883 9776 0
9883 9074 -9776 0
-9884 9074 0
-9884 -9776 0
9884 -9074 9776 0
-9885 -9883 0
-9885 -9884 0
9885 9883 9884 0
9775 -17141 0
-9775 17141 0
-9880 -9071 0
-9880 9775 0
9880 9071 -9775 0
-9881 9071 0
-9881 -9775 0
9881 -9071 9775 0
-9882 -9880 0
-9882 -9881 0
9882 9880 9881 0
9774 -17140 0
-9774 17140 0
-9877 -9068 0
-9877 9774 0
9877 9068 -9774 0
-9878 9068 0
-9878 -9774 0
9878 -9068 9774 0
-9879 -9877 0
-9879 -9878 0
9879 9877 9878 0
9773 -17139 0
-9773 17139 0
-9874 -9065 0
-9874 9773 0
9874 9065 -9773 0
-9875 9065 0
-9875 -9773 0
9875 -9065 9773 0
-9876 -9874 0
-9876 -9875 0
9876 9874 9875 0
9772 -17138 0
-9772 17138 0
-9871 -9062 0
-9871 9772 0
9871 9062 -9772 0
-9872 9062 0
-9872 -9772 0
9872 -9062 9772 0
-9873 -9871 0
-9873 -9872 0
9873 9871 9872 0
9771 -17137 0
-9771 17137 0
-9868 -9059 0
-9868 9771 0
9868 9059 -9771 0
-9869 9059 0
-9869 -9771 0
9869 -9059 9771 0
-9870 -9868 0
-9870 -9869 0
9870 9868 9869 0
9770 -17136 0
-9770 17136 0
-9865 -9056 0
-9865 9770 0
9865 9056 -9770 0
-9866 9056 0
-9866 -9770 0
9866 -9056 9770 0
-9867 -9865 0
-9867 -9866 0
9867 9865 9866 0
9769 -17135 0
-9769 17135 0
-9862 -9053 0
-9862 9769 0
9862 9053 -9769 0
-9863 9053 0
-9863 -9769 0
9863 -9053 9769 0
-9864 -9862 0
-9864 -9863 0
9864 9862 9863 0
9768 -17134 0
-9768 17134 0
-9859 -9050 0
-9859 9768 0
9859 9050 -9768 0
-9860 9050 0
-9860 -9768 0
9860 -9050 9768 0
-9861 -9859 0
-9861 -9860 0
9861 9859 9860 0
9767 -17133 0
-9767 17133 0
-9856 -9047 0
-9856 9767 0
9856 9047 -9767 0
-9857 9047 0
-9857 -9767 0
9857 -9047 9767 0
-9858 -9856 0
-9858 -9857 0
9858 9856 9857 0
9766 -17132 0
-9766 17132 0
-9853 -9044 0
-9853 9766 0
9853 9044 -9766 0
-9854 9044 0
-9854 -9766 0
9854 -9044 9766 0
-9855 -9853 0
-9855 -9854 0
9855 9853 9854 0
9765 -17131 0
-9765 17131 0
-9850 -9041 0
-9850 9765 0
9850 9041 -9765 0
-9851 9041 0
-9851 -9765 0
9851 -9041 9765 0
-9852 -9850 0
-9852 -9851 0
9852 9850 9851 0
9764 -17130 0
-9764 17130 0
-9847 -9038 0
-9847 9764 0
9847 9038 -9764 0
-9848 9038 0
-9848 -9764 0
9848 -9038 9764 0
-9849 -9847 0
-9849 -9848 0
9849 9847 9848 0
9763 -17129 0
-9763 17129 0
-9844 -9035 0
-9844 9763 0
9844 9035 -9763 0
-9845 9035 0
-9845 -9763 0
9845 -9035 9763 0
-9846 -9844 0
-9846 -9845 0
9846 9844 9845 0
9762 -17128 0
-9762 17128 0
-9841 -9032 0
-9841 9762 0
9841 9032 -9762 0
-9842 9032 0
-9842 -9762 0
9842 -9032 9762 0
-9843 -9841 0
-9843 -9842 0
9843 9841 9842 0
9761 -17127 0
-9761 17127 0
-9838 -9029 0
-9838 9761 0
9838 9029 -9761 0
-9839 9029 0
-9839 -9761 0
9839 -9029 9761 0
-9840 -9838 0
-9840 -9839 0
9840 9838 9839 0
9760 -17126 0
-9760 17126 0
-9835 -9026 0
-9835 9760 0
9835 9026 -9760 0
-9836 9026 0
-9836 -9760 0
9836 -9026 9760 0
-9837 -9835 0
-9837 -9836 0
9837 9835 9836 0
9759 -17125 0
-9759 17125 0
-9832 -9023 0
-9832 9759 0
9832 9023 -9759 0
-9833 9023 0
-9833 -9759 0
9833 -9023 9759 0
-9834 -9832 0
-9834 -9833 0
9834 9832 9833 0
9758 -17124 0
-9758 17124 0
-9829 -9020 0
-9829 9758 0
9829 9020 -9758 0
-9830 9020 0
-9830 -9758 0
9830 -9020 9758 0
-9831 -9829 0
-9831 -9830 0
9831 9829 9830 0
9757 -17123 0
-9757 17123 0
-9826 -9017 0
-9826 9757 0
9826 9017 -9757 0
-9827 9017 0
-9827 -9757 0
9827 -9017 9757 0
-9828 -9826 0
-9828 -9827 0
9828 9826 9827 0
9756 -17122 0
-9756 17122 0
-9823 -9014 0
-9823 9756 0
9823 9014 -9756 0
-9824 9014 0
-9824 -9756 0
9824 -9014 9756 0
-9825 -9823 0
-9825 -9824 0
9825 9823 9824 0
9754 -17120 0
-9754 17120 0
-9817 -9008 0
-9817 9754 0
9817 9008 -9754 0
-9818 9008 0
-9818 -9754 0
9818 -9008 9754 0
-9819 -9817 0
-9819 -9818 0
9819 9817 9818 0
9755 -17121 0
-9755 17121 0
-9820 -9011 0
-9820 9755 0
9820 9011 -9755 0
-9821 9011 0
-9821 -9755 0
9821 -9011 9755 0
-9822 -9820 0
-9822 -9821 0
9822 9820 9821 0
-10003 9819 0
-10003 9822 0
10003 -9819 -9822 0
-10004 9825 0
-10004 10003 0
10004 -9825 -10003 0
-10005 9828 0
-10005 10004 0
10005 -9828 -10004 0
-10006 9831 0
-10006 10005 0
10006 -9831 -10005 0
-10007 9834 0
-10007 10006 0
10007 -9834 -10006 0
-10008 9837 0
-10008 10007 0
10008 -9837 -10007 0
-10009 9840 0
-10009 10008 0
10009 -9840 -10008 0
-10010 9843 0
-10010 10009 0
10010 -9843 -10009 0
-10011 9846 0
-10011 10010 0
10011 -9846 -10010 0
-10012 9849 0
-10012 10011 0
10012 -9849 -10011 0
-10013 9852 0
-10013 10012 0
10013 -9852 -10012 0
-10014 9855 0
-10014 10013 0
10014 -9855 -10013 0
-10015 9858 0
-10015 10014 0
10015 -9858 -10014 0
-10016 9861 0
-10016 10015 0
10016 -9861 -10015 0
-10017 9864 0
-10017 10016 0
10017 -9864 -10016 0
-10018 9867 0
-10018 10017 0
10018 -9867 -10017 0
-10019 9870 0
-10019 10018 0
10019 -9870 -10018 0
-10020 9873 0
-10020 10019 0
10020 -9873 -10019 0
-10021 9876 0
-10021 10020 0
10021 -9876 -10020 0
-10022 9879 0
-10022 10021 0
10022 -9879 -10021 0
-10023 9882 0
-10023 10022 0
10023 -9882 -10022 0
-10024 9885 0
-10024 10023 0
10024 -9885 -10023 0
-10025 9888 0
-10025 10024 0
10025 -9888 -10024 0
-10026 9891 0
-10026 10025 0
10026 -9891 -10025 0
-10027 9894 0
-10027 10026 0
10027 -9894 -10026 0
-10028 9897 0
-10028 10027 0
10028 -9897 -10027 0
-10029 9900 0
-10029 10028 0
10029 -9900 -10028 0
-10030 9903 0
-10030 10029 0
10030 -9903 -10029 0
-10031 9906 0
-10031 10030 0
10031 -9906 -10030 0
-10032 9909 0
-10032 10031 0
10032 -9909 -10031 0
-10033 9912 0
-10033 10032 0
10033 -9912 -10032 0
-10034 9915 0
-10034 10033 0
10034 -9915 -10033 0
-10035 9918 0
-10035 10034 0
10035 -9918 -10034 0
-10036 9921 0
-10036 10035 0
10036 -9921 -10035 0
-10037 9924 0
-10037 10036 0
10037 -9924 -10036 0
-10038 9927 0
-10038 10037 0
10038 -9927 -10037 0
-10039 9930 0
-10039 10038 0
10039 -9930 -10038 0
-10040 9933 0
-10040 10039 0
10040 -9933 -10039 0
-10041 9936 0
-10041 10040 0
10041 -9936 -10040 0
-10042 9939 0
-10042 10041 0
10042 -9939 -10041 0
-10043 9942 0
-10043 10042 0
10043 -9942 -10042 0
-10044 9945 0
-10044 10043 0
10044 -9945 -10043 0
-10045 9948 0
-10045 10044 0
10045 -9948 -10044 0
-10046 9951 0
-10046 10045 0
10046 -9951 -10045 0
-10047 9954 0
-10047 10046 0
10047 -9954 -10046 0
-10048 9957 0
-10048 10047 0
10048 -9957 -10047 0
-10049 9960 0
-10049 10048 0
10049 -9960 -10048 0
-10050 9963 0
-10050 10049 0
10050 -9963 -10049 0
-10051 9966 0
-10051 10050 0
10051 -9966 -10050 0
-10052 9969 0
-10052 10051 0
10052 -9969 -10051 0
-10053 9972 0
-10053 10052 0
10053 -9972 -10052 0
-10054 9975 0
-10054 10053 0
10054 -9975 -10053 0
-10055 9978 0
-10055 10054 0
10055 -9978 -10054 0
-10056 9981 0
-10056 10055 0
10056 -9981 -10055 0
-10057 9984 0
-10057 10056 0
10057 -9984 -10056 0
-10058 9987 0
-10058 10057 0
10058 -9987 -10057 0
-10059 9990 0
-10059 10058 0
10059 -9990 -10058 0
-10060 9993 0
-10060 10059 0
10060 -9993 -10059 0
-10061 9996 0
-10061 10060 0
10061 -9996 -10060 0
-10062 9999 0
-10062 10061 0
10062 -9999 -10061 0
-10063 10002 0
-10063 10062 0
10063 -10002 -10062 0
-10064 -9816 0
-10064 10063 0
10064 9816 -10063 0
-10065 7896 0
-10065 -10064 0
10065 -7896 10064 0
-10066 9753 0
-10066 -10065 0
10066 -9753 10065 0
-10250 -8001 0
-10250 9815 0
10250 8001 -9815 0
-10251 8001 0
-10251 -9815 0
10251 -8001 9815 0
-10252 -10250 0
-10252 -10251 0
10252 10250 10251 0
-10247 -8000 0
-10247 9814 0
10247 8000 -9814 0
-10248 8000 0
-10248 -9814 0
10248 -8000 9814 0
-10249 -10247 0
-10249 -10248 0
10249 10247 10248 0
-10244 -7999 0
-10244 9813 0
10244 7999 -9813 0
-10245 7999 0
-10245 -9813 0
10245 -7999 9813 0
-10246 -10244 0
-10246 -10245 0
10246 10244 10245 0
-10241 -7998 0
-10241 9812 0
10241 7998 -9812 0
-10242 7998 0
-10242 -9812 0
10242 -7998 9812 0
-10243 -10241 0
-10243 -10242 0
10243 10241 10242 0
-10238 -7997 0
-10238 9811 0
10238 7997 -9811 0
-10239 7997 0
-10239 -9811 0
10239 -7997 9811 0
-10240 -10238 0
-10240 -10239 0
10240 10238 10239 0
-10235 -7996 0
-10235 9810 0
10235 7996 -9810 0
-10236 7996 0
-10236 -9810 0
10236 -7996 9810 0
-10237 -10235 0
-10237 -10236 0
10237 10235 10236 0
-10232 -7995 0
-10232 9809 0
10232 7995 -9809 0
-10233 7995 0
-10233 -9809 0
10233 -7995 9809 0
-10234 -10232 0
-10234 -10233 0
10234 10232 10233 0
-10229 -7994 0
-10229 9808 0
10229 7994 -9808 0
-10230 7994 0
-10230 -9808 0
10230 -7994 9808 0
-10231 -10229 0
-10231 -10230 0
10231 10229 10230 0
-10226 -7993 0
-10226 9807 0
10226 7993 -9807 0
-10227 7993 0
-10227 -9807 0
10227 -7993 9807 0
-10228 -10226 0
-10228 -10227 0
10228 10226 10227 0
-10223 -7992 0
-10223 9806 0
10223 7992 -9806 0
-10224 7992 0
-10224 -9806 0
10224 -7992 9806 0
-10225 -10223 0
-10225 -10224 0
10225 10223 10224 0
-10220 -7991 0
-10220 9805 0
10220 7991 -9805 0
-10221 7991 0
-10221 -9805 0
10221 -7991 9805 0
-10222 -10220 0
-10222 -10221 0
10222 10220 10221 0
-10217 -7990 0
-10217 9804 0
10217 7990 -9804 0
-10218 7990 0
-10218 -9804 0
10218 -7990 9804 0
-10219 -10217 0
-10219 -10218 0
10219 10217 10218 0
-10214 -7989 0
-10214 9803 0
10214 7989 -9803 0
-10215 7989 0
-10215 -9803 0
10215 -7989 9803 0
-10216 -10214 0
-10216 -10215 0
10216 10214 10215 0
-10211 -7988 0
-10211 9802 0
10211 7988 -9802 0
-10212 7988 0
-10212 -9802 0
10212 -7988 9802 0
-10213 -10211 0
-10213 -10212 0
10213 10211 10212 0
-10208 -7987 0
-10208 9801 0
10208 7987 -9801 0
-10209 7987 0
-10209 -9801 0
10209 -7987 9801 0
-10210 -10208 0
-10210 -10209 0
10210 10208 10209 0
-10205 -7986 0
-10205 9800 0
10205 7986 -9800 0
-10206 7986 0
-10206 -9800 0
10206 -7986 9800 0
-10207 -10205 0
-10207 -10206 0
10207 10205 10206 0
-10202 -7985 0
-10202 9799 0
10202 7985 -9799 0
-10203 7985 0
-10203 -9799 0
10203 -7985 9799 0
-10204 -10202 0
-10204 -10203 0
10204 10202 10203 0
-10199 -7984 0
-10199 9798 0
10199 7984 -9798 0
-10200 7984 0
-10200 -9798 0
10200 -7984 9798 0
-10201 -10199 0
-10201 -10200 0
10201 10199 10200 0
-10196 -7983 0
-10196 9797 0
10196 7983 -9797 0
-10197 7983 0
-10197 -9797 0
10197 -7983 9797 0
-10198 -10196 0
-10198 -10197 0
10198 10196 10197 0
-10193 -7982 0
-10193 9796 0
10193 7982 -9796 0
-10194 7982 0
-10194 -9796 0
10194 -7982 9796 0
-10195 -10193 0
-10195 -10194 0
10195 10193 10194 0
-10190 -7981 0
-10190 9795 0
10190 7981 -9795 0
-10191 7981 0
-10191 -9795 0
10191 -7981 9795 0
-10192 -10190 0
-10192 -10191 0
10192 10190 10191 0
-10187 -7980 0
-10187 9794 0
10187 7980 -9794 0
-10188 7980 0
-10188 -9794 0
10188 -7980 9794 0
-10189 -10187 0
-10189 -10188 0
10189 10187 10188 0
-10184 -7979 0
-10184 9793 0
10184 7979 -9793 0
-10185 7979 0
-10185 -9793 0
10185 -7979 9793 0
-10186 -10184 0
-10186 -10185 0
10186 10184 10185 0
-10181 -7978 0
-10181 9792 0
10181 7978 -9792 0
-10182 7978 0
-10182 -9792 0
10182 -7978 9792 0
-10183 -10181 0
-10183 -10182 0
10183 10181 10182 0
-10178 -7977 0
-10178 9791 0
10178 7977 -9791 0
-10179 7977 0
-10179 -9791 0
10179 -7977 9791 0
-10180 -10178 0
-10180 -10179 0
10180 10178 10179 0
-10175 -7976 0
-10175 9790 0
10175 7976 -9790 0
-10176 7976 0
-10176 -9790 0
10176 -7976 9790 0
-10177 -10175 0
-10177 -10176 0
10177 10175 10176 0
-10172 -7975 0
-10172 9789 0
10172 7975 -9789 0
-10173 7975 0
-10173 -9789 0
10173 -7975 9789 0
-10174 -10172 0
-10174 -10173 0
10174 10172 10173 0
-10169 -7974 0
-10169 9788 0
10169 7974 -9788 0
-10170 7974 0
-10170 -9788 0
10170 -7974 9788 0
-10171 -10169 0
-10171 -10170 0
10171 10169 10170 0
-10166 -7973 0
-10166 9787 0
10166 7973 -9787 0
-10167 7973 0
-10167 -9787 0
10167 -7973 9787 0
-10168 -10166 0
-10168 -10167 0
10168 10166 10167 0
-10163 -7972 0
-10163 9786 0
10163 7972 -9786 0
-10164 7972 0
-10164 -9786 0
10164 -7972 9786 0
-10165 -10163 0
-10165 -10164 0
10165 10163 10164 0
-10160 -7971 0
-10160 9785 0
10160 7971 -9785 0
-10161 7971 0
-10161 -9785 0
10161 -7971 9785 0
-10162 -10160 0
-10162 -10161 0
10162 10160 10161 0
-10157 -7970 0
-10157 9784 0
10157 7970 -9784 0
-10158 7970 0
-10158 -9784 0
10158 -7970 9784 0
-10159 -10157 0
-10159 -10158 0
10159 10157 10158 0
-10154 -7969 0
-10154 9783 0
10154 7969 -9783 0
-10155 7969 0
-10155 -9783 0
10155 -7969 9783 0
-10156 -10154 0
-10156 -10155 0
10156 10154 10155 0
-10151 -7968 0
-10151 9782 0
10151 7968 -9782 0
-10152 7968 0
-10152 -9782 0
10152 -7968 9782 0
-10153 -10151 0
-10153 -10152 0
10153 10151 10152 0
-10148 -7967 0
-10148 9781 0
10148 7967 -9781 0
-10149 7967 0
-10149 -9781 0
10149 -7967 9781 0
-10150 -10148 0
-10150 -10149 0
10150 10148 10149 0
-10145 -7966 0
-10145 9780 0
10145 7966 -9780 0
-10146 7966 0
-10146 -9780 0
10146 -7966 9780 0
-10147 -10145 0
-10147 -10146 0
10147 10145 10146 0
-10142 -7965 0
-10142 9779 0
10142 7965 -9779 0
-10143 7965 0
-10143 -9779 0
10143 -7965 9779 0
-10144 -10142 0
-10144 -10143 0
10144 10142 10143 0
-10139 -7964 0
-10139 9778 0
10139 7964 -9778 0
-10140 7964 0
-10140 -9778 0
10140 -7964 9778 0
-10141 -10139 0
-10141 -10140 0
10141 10139 10140 0
-10136 -7963 0
-10136 9777 0
10136 7963 -9777 0
-10137 7963 0
-10137 -9777 0
10137 -7963 9777 0
-10138 -10136 0
-10138 -10137 0
10138 10136 10137 0
-10133 -7962 0
-10133 9776 0
10133 7962 -9776 0
-10134 7962 0
-10134 -9776 0
10134 -7962 9776 0
-10135 -10133 0
-10135 -10134 0
10135 10133 10134 0
-10130 -7961 0
-10130 9775 0
10130 7961 -9775 0
-10131 7961 0
-10131 -9775 0
10131 -7961 9775 0
-10132 -10130 0
-10132 -10131 0
10132 10130 10131 0
-10127 -7960 0
-10127 9774 0
10127 7960 -9774 0
-10128 7960 0
-10128 -9774 0
10128 -7960 9774 0
-10129 -10127 0
-10129 -10128 0
10129 10127 10128 0
-10124 -7959 0
-10124 9773 0
10124 7959 -9773 0
-10125 7959 0
-10125 -9773 0
10125 -7959 9773 0
-10126 -10124 0
-10126 -10125 0
10126 10124 10125 0
-10121 -7958 0
-10121 9772 0
10121 7958 -9772 0
-10122 7958 0
-10122 -9772 0
10122 -7958 9772 0
-10123 -10121 0
-10123 -10122 0
10123 10121 10122 0
-10118 -7957 0
-10118 9771 0
10118 7957 -9771 0
-10119 7957 0
-10119 -9771 0
10119 -7957 9771 0
-10120 -10118 0
-10120 -10119 0
10120 10118 10119 0
-10115 -7956 0
-10115 9770 0
10115 7956 -9770 0
-10116 7956 0
-10116 -9770 0
10116 -7956 9770 0
-10117 -10115 0
-10117 -10116 0
10117 10115 10116 0
-10112 -7955 0
-10112 9769 0
10112 7955 -9769 0
-10113 7955 0
-10113 -9769 0
10113 -7955 9769 0
-10114 -10112 0
-10114 -10113 0
10114 10112 10113 0
-10109 -7954 0
-10109 9768 0
10109 7954 -9768 0
-10110 7954 0
-10110 -9768 0
10110 -7954 9768 0
-10111 -10109 0
-10111 -10110 0
10111 10109 10110 0
-10106 -7953 0
-10106 9767 0
10106 7953 -9767 0
-10107 7953 0
-10107 -9767 0
10107 -7953 9767 0
-10108 -10106 0
-10108 -10107 0
10108 10106 10107 0
-10103 -7952 0
-10103 9766 0
10103 7952 -9766 0
-10104 7952 0
-10104 -9766 0
10104 -7952 9766 0
-10105 -10103 0
-10105 -10104 0
10105 10103 10104 0
-10100 -7951 0
-10100 9765 0
10100 7951 -9765 0
-10101 7951 0
-10101 -9765 0
10101 -7951 9765 0
-10102 -10100 0
-10102 -10101 0
10102 10100 10101 0
-10097 -7950 0
-10097 9764 0
10097 7950 -9764 0
-10098 7950 0
-10098 -9764 0
10098 -7950 9764 0
-10099 -10097 0
-10099 -10098 0
10099 10097 10098 0
-10094 -7949 0
-10094 9763 0
10094 7949 -9763 0
-10095 7949 0
-10095 -9763 0
10095 -7949 9763 0
-10096 -10094 0
-10096 -10095 0
10096 10094 10095 0
-10091 -7948 0
-10091 9762 0
10091 7948 -9762 0
-10092 7948 0
-10092 -9762 0
10092 -7948 9762 0
-10093 -10091 0
-10093 -10092 0
10093 10091 10092 0
-10088 -7947 0
-10088 9761 0
10088 7947 -9761 0
-10089 7947 0
-10089 -9761 0
10089 -7947 9761 0
-10090 -10088 0
-10090 -10089 0
10090 10088 10089 0
-10085 -7946 0
-10085 9760 0
10085 7946 -9760 0
-10086 7946 0
-10086 -9760 0
10086 -7946 9760 0
-10087 -10085 0
-10087 -10086 0
10087 10085 10086 0
-10082 -7945 0
-10082 9759 0
10082 7945 -9759 0
-10083 7945 0
-10083 -9759 0
10083 -7945 9759 0
-10084 -10082 0
-10084 -10083 0
10084 10082 10083 0
-10079 -7944 0
-10079 9758 0
10079 7944 -9758 0
-10080 7944 0
-10080 -9758 0
10080 -7944 9758 0
-10081 -10079 0
-10081 -10080 0
10081 10079 10080 0
-10076 -7943 0
-10076 9757 0
10076 7943 -9757 0
-10077 7943 0
-10077 -9757 0
10077 -7943 9757 0
-10078 -10076 0
-10078 -10077 0
10078 10076 10077 0
-10073 -7942 0
-10073 9756 0
10073 7942 -9756 0
-10074 7942 0
-10074 -9756 0
10074 -7942 9756 0
-10075 -10073 0
-10075 -10074 0
10075 10073 10074 0
-10067 -7940 0
-10067 9754 0
10067 7940 -9754 0
-10068 7940 0
-10068 -9754 0
10068 -7940 9754 0
-10069 -10067 0
-10069 -10068 0
10069 10067 10068 0
-10070 -7941 0
-10070 9755 0
10070 7941 -9755 0
-10071 7941 0
-10071 -9755 0
10071 -7941 9755 0
-10072 -10070 0
-10072 -10071 0
10072 10070 10071 0
-10253 10069 0
-10253 10072 0
10253 -10069 -10072 0
-10254 10075 0
-10254 10253 0
10254 -10075 -10253 0
-10255 10078 0
-10255 10254 0
10255 -10078 -10254 0
-10256 10081 0
-10256 10255 0
10256 -10081 -10255 0
-10257 10084 0
-10257 10256 0
10257 -10084 -10256 0
-10258 10087 0
-10258 10257 0
10258 -10087 -10257 0
-10259 10090 0
-10259 10258 0
10259 -10090 -10258 0
-10260 10093 0
-10260 10259 0
10260 -10093 -10259 0
-10261 10096 0
-10261 10260 0
10261 -10096 -10260 0
-10262 10099 0
-10262 10261 0
10262 -10099 -10261 0
-10263 10102 0
-10263 10262 0
10263 -10102 -10262 0
-10264 10105 0
-10264 10263 0
10264 -10105 -10263 0
-10265 10108 0
-10265 10264 0
10265 -10108 -10264 0
-10266 10111 0
-10266 10265 0
10266 -10111 -10265 0
-10267 10114 0
-10267 10266 0
10267 -10114 -10266 0
-10268 10117 0
-10268 10267 0
10268 -10117 -10267 0
-10269 10120 0
-10269 10268 0
10269 -10120 -10268 0
-10270 10123 0
-10270 10269 0
10270 -10123 -10269 0
-10271 10126 0
-10271 10270 0
10271 -10126 -10270 0
-10272 10129 0
-10272 10271 0
10272 -10129 -10271 0
-10273 10132 0
-10273 10272 0
10273 -10132 -10272 0
-10274 10135 0
-10274 10273 0
10274 -10135 -10273 0
-10275 10138 0
-10275 10274 0
10275 -10138 -10274 0
-10276 10141 0
-10276 10275 0
10276 -10141 -10275 0
-10277 10144 0
-10277 10276 0
10277 -10144 -10276 0
-10278 10147 0
-10278 10277 0
10278 -10147 -10277 0
-10279 10150 0
-10279 10278 0
10279 -10150 -10278 0
-10280 10153 0
-10280 10279 0
10280 -10153 -10279 0
-10281 10156 0
-10281 10280 0
10281 -10156 -10280 0
-10282 10159 0
-10282 10281 0
10282 -10159 -10281 0
-10283 10162 0
-10283 10282 0
10283 -10162 -10282 0
-10284 10165 0
-10284 10283 0
10284 -10165 -10283 0
-10285 10168 0
-10285 10284 0
10285 -10168 -10284 0
-10286 10171 0
-10286 10285 0
10286 -10171 -10285 0
-10287 10174 0
-10287 10286 0
10287 -10174 -10286 0
-10288 10177 0
-10288 10287 0
10288 -10177 -10287 0
-10289 10180 0
-10289 10288 0
10289 -10180 -10288 0
-10290 10183 0
-10290 10289 0
10290 -10183 -10289 0
-10291 10186 0
-10291 10290 0
10291 -10186 -10290 0
-10292 10189 0
-10292 10291 0
10292 -10189 -10291 0
-10293 10192 0
-10293 10292 0
10293 -10192 -10292 0
-10294 10195 0
-10294 10293 0
10294 -10195 -10293 0
-10295 10198 0
-10295 10294 0
10295 -10198 -10294 0
-10296 10201 0
-10296 10295 0
10296 -10201 -10295 0
-10297 10204 0
-10297 10296 0
10297 -10204 -10296 0
-10298 10207 0
-10298 10297 0
10298 -10207 -10297 0
-10299 10210 0
-10299 10298 0
10299 -10210 -10298 0
-10300 10213 0
-10300 10299 0
10300 -10213 -10299 0
-10301 10216 0
-10301 10300 0
10301 -10216 -10300 0
-10302 10219 0
-10302 10301 0
10302 -10219 -10301 0
-10303 10222 0
-10303 10302 0
10303 -10222 -10302 0
-10304 10225 0
-10304 10303 0
10304 -10225 -10303 0
-10305 10228 0
-10305 10304 0
10305 -10228 -10304 0
-10306 10231 0
-10306 10305 0
10306 -10231 -10305 0
-10307 10234 0
-10307 10306 0
10307 -10234 -10306 0
-10308 10237 0
-10308 10307 0
10308 -10237 -10307 0
-10309 10240 0
-10309 10308 0
10309 -10240 -10308 0
-10310 10243 0
-10310 10309 0
10310 -10243 -10309 0
-10311 10246 0
-10311 10310 0
10311 -10246 -10310 0
-10312 10249 0
-10312 10311 0
10312 -10249 -10311 0
-10313 10252 0
-10313 10312 0
10313 -10252 -10312 0
-10314 -9816 0
-10314 10313 0
10314 9816 -10313 0
-10315 -7896 0
-10315 -10314 0
10315 7896 10314 0
-10316 10066 0
-10316 -10315 0
10316 -10066 10315 0
10380 -17246 0
-10380 17246 0
10379 -17245 0
-10379 17245 0
-10804 8563 0
-10804 8564 0
10804 -8563 -8564 0
-10797 8562 0
-10797 8563 0
10797 -8562 -8563 0
-10790 8561 0
-10790 8562 0
10790 -8561 -8562 0
-10783 8560 0
-10783 8561 0
10783 -8560 -8561 0
-10776 8559 0
-10776 8560 0
10776 -8559 -8560 0
-10769 8558 0
-10769 8559 0
10769 -8558 -8559 0
-10762 8557 0
-10762 8558 0
10762 -8557 -8558 0
-10755 8556 0
-10755 8557 0
10755 -8556 -8557 0
-10748 8555 0
-10748 8556 0
10748 -8555 -8556 0
-10741 8554 0
-10741 8555 0
10741 -8554 -8555 0
-10734 8553 0
-10734 8554 0
10734 -8553 -8554 0
-10727 8552 0
-10727 8553 0
10727 -8552 -8553 0
-10720 8551 0
-10720 8552 0
10720 -8551 -8552 0
-10713 8550 0
-10713 8551 0
10713 -8550 -8551 0
-10706 8549 0
-10706 8550 0
10706 -8549 -8550 0
-10699 8548 0
-10699 8549 0
10699 -8548 -8549 0
-10692 8547 0
-10692 8548 0
10692 -8547 -8548 0
-10685 8546 0
-10685 8547 0
10685 -8546 -8547 0
-10678 8545 0
-10678 8546 0
10678 -8545 -8546 0
-10671 8544 0
-10671 8545 0
10671 -8544 -8545 0
-10664 8543 0
-10664 8544 0
10664 -8543 -8544 0
-10657 8542 0
-10657 8543 0
10657 -8542 -8543 0
-10650 8541 0
-10650 8542 0
10650 -8541 -8542 0
-10643 8540 0
-10643 8541 0
10643 -8540 -8541 0
-10636 8539 0
-10636 8540 0
10636 -8539 -8540 0
-10629 8538 0
-10629 8539 0
10629 -8538 -8539 0
-10622 8537 0
-10622 8538 0
10622 -8537 -8538 0
-10615 8536 0
-10615 8537 0
10615 -8536 -8537 0
-10608 8535 0
-10608 8536 0
10608 -8535 -8536 0
-10601 8534 0
-10601 8535 0
10601 -8534 -8535 0
-10594 8533 0
-10594 8534 0
10594 -8533 -8534 0
-10587 8532 0
-10587 8533 0
10587 -8532 -8533 0
-10580 8531 0
-10580 8532 0
10580 -8531 -8532 0
-10573 8530 0
-10573 8531 0
10573 -8530 -8531 0
-10566 8529 0
-10566 8530 0
10566 -8529 -8530 0
-10559 8528 0
-10559 8529 0
10559 -8528 -8529 0
-10552 8527 0
-10552 8528 0
10552 -8527 -8528 0
-10545 8526 0
-10545 8527 0
10545 -8526 -8527 0
-10538 8525 0
-10538 8526 0
10538 -8525 -8526 0
-10531 8524 0
-10531 8525 0
10531 -8524 -8525 0
-10524 8523 0
-10524 8524 0
10524 -8523 -8524 0
-10517 8522 0
-10517 8523 0
10517 -8522 -8523 0
-10510 8521 0
-10510 8522 0
10510 -8521 -8522 0
-10503 8520 0
-10503 8521 0
10503 -8520 -8521 0
-10496 8519 0
-10496 8520 0
10496 -8519 -8520 0
-10489 8518 0
-10489 8519 0
10489 -8518 -8519 0
-10482 8517 0
-10482 8518 0
10482 -8517 -8518 0
-10475 8516 0
-10475 8517 0
10475 -8516 -8517 0
-10468 8515 0
-10468 8516 0
10468 -8515 -8516 0
-10461 8514 0
-10461 8515 0
10461 -8514 -8515 0
-10454 8513 0
-10454 8514 0
10454 -8513 -8514 0
-10447 8512 0
-10447 8513 0
10447 -8512 -8513 0
-10440 8511 0
-10440 8512 0
10440 -8511 -8512 0
-10433 8510 0
-10433 8511 0
10433 -8510 -8511 0
-10426 8509 0
-10426 8510 0
10426 -8509 -8510 0
-10419 8508 0
-10419 8509 0
10419 -8508 -8509 0
-10412 8507 0
-10412 8508 0
10412 -8507 -8508 0
-10405 8506 0
-10405 8507 0
10405 -8506 -8507 0
-10398 8505 0
-10398 8506 0
10398 -8505 -8506 0
-10391 8504 0
-10391 8505 0
10391 -8504 -8505 0
-10384 8503 0
-10384 8504 0
10384 -8503 -8504 0
-10381 8502 0
-10381 8503 0
10381 -8502 -8503 0
-10385 -8503 0
-10385 -8504 0
10385 8503 8504 0
-10386 -10384 0
-10386 -10385 0
10386 10384 10385 0
-10387 10381 0
-10387 10386 0
10387 -10381 -10386 0
-10390 -10384 0
-10390 -10387 0
10390 10384 10387 0
-10392 -8504 0
-10392 -8505 0
10392 8504 8505 0
-10393 -10391 0
-10393 -10392 0
10393 10391 10392 0
-10394 -10390 0
-10394 10393 0
10394 10390 -10393 0
-10397 -10391 0
-10397 -10394 0
10397 10391 10394 0
-10399 -8505 0
-10399 -8506 0
10399 8505 8506 0
-10400 -10398 0
-10400 -10399 0
10400 10398 10399 0
-10401 -10397 0
-10401 10400 0
10401 10397 -10400 0
-10404 -10398 0
-10404 -10401 0
10404 10398 10401 0
-10406 -8506 0
-10406 -8507 0
10406 8506 8507 0
-10407 -10405 0
-10407 -10406 0
10407 10405 10406 0
-10408 -10404 0
-10408 10407 0
10408 10404 -10407 0
-10411 -10405 0
-10411 -10408 0
10411 10405 10408 0
-10413 -8507 0
-10413 -8508 0
10413 8507 8508 0
-10414 -10412 0
-10414 -10413 0
10414 10412 10413 0
-10415 -10411 0
-10415 10414 0
10415 10411 -10414 0
-10418 -10412 0
-10418 -10415 0
10418 10412 10415 0
-10420 -8508 0
-10420 -8509 0
10420 8508 8509 0
-10421 -10419 0
-10421 -10420 0
10421 10419 10420 0
-10422 -10418 0
-10422 10421 0
10422 10418 -10421 0
-10425 -10419 0
-10425 -10422 0
10425 10419 10422 0
-10427 -8509 0
-10427 -8510 0
10427 8509 8510 0
-10428 -10426 0
-10428 -10427 0
10428 10426 10427 0
-10429 -10425 0
-10429 10428 0
10429 10425 -10428 0
-10432 -10426 0
-10432 -10429 0
10432 10426 10429 0
-10434 -8510 0
-10434 -8511 0
10434 8510 8511 0
-10435 -10433 0
-10435 -10434 0
10435 10433 10434 0
-10436 -10432 0
-10436 10435 0
10436 10432 -10435 0
-10439 -10433 0
-10439 -10436 0
10439 10433 10436 0
-10441 -8511 0
-10441 -8512 0
10441 8511 8512 0
-10442 -10440 0
-10442 -10441 0
10442 10440 10441 0
-10443 -10439 0
-10443 10442 0
10443 10439 -10442 0
-10446 -10440 0
-10446 -10443 0
10446 10440 10443 0
-10448 -8512 0
-10448 -8513 0
10448 8512 8513 0
-10449 -10447 0
-10449 -10448 0
10449 10447 10448 0
-10450 -10446 0
-10450 10449 0
10450 10446 -10449 0
-10453 -10447 0
-10453 -10450 0
10453 10447 10450 0
-10455 -8513 0
-10455 -8514 0
10455 8513 8514 0
-10456 -10454 0
-10456 -10455 0
10456 10454 10455 0
-10457 -10453 0
-10457 10456 0
10457 10453 -10456 0
-10460 -10454 0
-10460 -10457 0
10460 10454 10457 0
-10462 -8514 0
-10462 -8515 0
10462 8514 8515 0
-10463 -10461 0
-10463 -10462 0
10463 10461 10462 0
-10464 -10460 0
-10464 10463 0
10464 10460 -10463 0
-10467 -10461 0
-10467 -10464 0
10467 10461 10464 0
-10469 -8515 0
-10469 -8516 0
10469 8515 8516 0
-10470 -10468 0
-10470 -10469 0
10470 10468 10469 0
-10471 -10467 0
-10471 10470 0
10471 10467 -10470 0
-10474 -10468 0
-10474 -10471 0
10474 10468 10471 0
-10476 -8516 0
-10476 -8517 0
10476 8516 8517 0
-10477 -10475 0
-10477 -10476 0
10477 10475 10476 0
-10478 -10474 0
-10478 10477 0
10478 10474 -10477 0
-10481 -10475 0
-10481 -10478 0
10481 10475 10478 0
-10483 -8517 0
-10483 -8518 0
10483 8517 8518 0
-10484 -10482 0
-10484 -10483 0
10484 10482 10483 0
-10485 -10481 0
-10485 10484 0
10485 10481 -10484 0
-10488 -10482 0
-10488 -10485 0
10488 10482 10485 0
-10490 -8518 0
-10490 -8519 0
10490 8518 8519 0
-10491 -10489 0
-10491 -10490 0
10491 10489 10490 0
-10492 -10488 0
-10492 10491 0
10492 10488 -10491 0
-10495 -10489 0
-10495 -10492 0
10495 10489 10492 0
-10497 -8519 0
-10497 -8520 0
10497 8519 8520 0
-10498 -10496 0
-10498 -10497 0
10498 10496 10497 0
-10499 -10495 0
-10499 10498 0
10499 10495 -10498 0
-10502 -10496 0
-10502 -10499 0
10502 10496 10499 0
-10504 -8520 0
-10504 -8521 0
10504 8520 8521 0
-10505 -10503 0
-10505 -10504 0
10505 10503 10504 0
-10506 -10502 0
-10506 10505 0
10506 10502 -10505 0
-10509 -10503 0
-10509 -10506 0
10509 10503 10506 0
-10511 -8521 0
-10511 -8522 0
10511 8521 8522 0
-10512 -10510 0
-10512 -10511 0
10512 10510 10511 0
-10513 -10509 0
-10513 10512 0
10513 10509 -10512 0
-10516 -10510 0
-10516 -10513 0
10516 10510 10513 0
-10518 -8522 0
-10518 -8523 0
10518 8522 8523 0
-10519 -10517 0
-10519 -10518 0
10519 10517 10518 0
-10520 -10516 0
-10520 10519 0
10520 10516 -10519 0
-10523 -10517 0
-10523 -10520 0
10523 10517 10520 0
-10525 -8523 0
-10525 -8524 0
10525 8523 8524 0
-10526 -10524 0
-10526 -10525 0
10526 10524 10525 0
-10527 -10523 0
-10527 10526 0
10527 10523 -10526 0
-10530 -10524 0
-10530 -10527 0
10530 10524 10527 0
-10532 -8524 0
-10532 -8525 0
10532 8524 8525 0
-10533 -10531 0
-10533 -10532 0
10533 10531 10532 0
-10534 -10530 0
-10534 10533 0
10534 10530 -10533 0
-10537 -10531 0
-10537 -10534 0
10537 10531 10534 0
-10539 -8525 0
-10539 -8526 0
10539 8525 8526 0
-10540 -10538 0
-10540 -10539 0
10540 10538 10539 0
-10541 -10537 0
-10541 10540 0
10541 10537 -10540 0
-10544 -10538 0
-10544 -10541 0
10544 10538 10541 0
-10546 -8526 0
-10546 -8527 0
10546 8526 8527 0
-10547 -10545 0
-10547 -10546 0
10547 10545 10546 0
-10548 -10544 0
-10548 10547 0
10548 10544 -10547 0
-10551 -10545 0
-10551 -10548 0
10551 10545 10548 0
-10553 -8527 0
-10553 -8528 0
10553 8527 8528 0
-10554 -10552 0
-10554 -10553 0
10554 10552 10553 0
-10555 -10551 0
-10555 10554 0
10555 10551 -10554 0
-10558 -10552 0
-10558 -10555 0
10558 10552 10555 0
-10560 -8528 0
-10560 -8529 0
10560 8528 8529 0
-10561 -10559 0
-10561 -10560 0
10561 10559 10560 0
-10562 -10558 0
-10562 10561 0
10562 10558 -10561 0
-10565 -10559 0
-10565 -10562 0
10565 10559 10562 0
-10567 -8529 0
-10567 -8530 0
10567 8529 8530 0
-10568 -10566 0
-10568 -10567 0
10568 10566 10567 0
-10569 -10565 0
-10569 10568 0
10569 10565 -10568 0
-10572 -10566 0
-10572 -10569 0
10572 10566 10569 0
-10574 -8530 0
-10574 -8531 0
10574 8530 8531 0
-10575 -10573 0
-10575 -10574 0
10575 10573 10574 0
-10576 -10572 0
-10576 10575 0
10576 10572 -10575 0
-10579 -10573 0
-10579 -10576 0
10579 10573 10576 0
-10581 -8531 0
-10581 -8532 0
10581 8531 8532 0
-10582 -10580 0
-10582 -10581 0
10582 10580 10581 0
-10583 -10579 0
-10583 10582 0
10583 10579 -10582 0
-10586 -10580 0
-10586 -10583 0
10586 10580 10583 0
-10588 -8532 0
-10588 -8533 0
10588 8532 8533 0
-10589 -10587 0
-10589 -10588 0
10589 10587 10588 0
-10590 -10586 0
-10590 10589 0
10590 10586 -10589 0
-10593 -10587 0
-10593 -10590 0
10593 10587 10590 0
-10595 -8533 0
-10595 -8534 0
10595 8533 8534 0
-10596 -10594 0
-10596 -10595 0
10596 10594 10595 0
-10597 -10593 0
-10597 10596 0
10597 10593 -10596 0
-10600 -10594 0
-10600 -10597 0
10600 10594 10597 0
-10602 -8534 0
-10602 -8535 0
10602 8534 8535 0
-10603 -10601 0
-10603 -10602 0
10603 10601 10602 0
-10604 -10600 0
-10604 10603 0
10604 10600 -10603 0
-10607 -10601 0
-10607 -10604 0
10607 10601 10604 0
-10609 -8535 0
-10609 -8536 0
10609 8535 8536 0
-10610 -10608 0
-10610 -10609 0
10610 10608 10609 0
-10611 -10607 0
-10611 10610 0
10611 10607 -10610 0
-10614 -10608 0
-10614 -10611 0
10614 10608 10611 0
-10616 -8536 0
-10616 -8537 0
10616 8536 8537 0
-10617 -10615 0
-10617 -10616 0
10617 10615 10616 0
-10618 -10614 0
-10618 10617 0
10618 10614 -10617 0
-10621 -10615 0
-10621 -10618 0
10621 10615 10618 0
-10623 -8537 0
-10623 -8538 0
10623 8537 8538 0
-10624 -10622 0
-10624 -10623 0
10624 10622 10623 0
-10625 -10621 0
-10625 10624 0
10625 10621 -10624 0
-10628 -10622 0
-10628 -10625 0
10628 10622 10625 0
-10630 -8538 0
-10630 -8539 0
10630 8538 8539 0
-10631 -10629 0
-10631 -10630 0
10631 10629 10630 0
-10632 -10628 0
-10632 10631 0
10632 10628 -10631 0
-10635 -10629 0
-10635 -10632 0
10635 10629 10632 0
-10637 -8539 0
-10637 -8540 0
10637 8539 8540 0
-10638 -10636 0
-10638 -10637 0
10638 10636 10637 0
-10639 -10635 0
-10639 10638 0
10639 10635 -10638 0
-10642 -10636 0
-10642 -10639 0
10642 10636 10639 0
-10644 -8540 0
-10644 -8541 0
10644 8540 8541 0
-10645 -10643 0
-10645 -10644 0
10645 10643 10644 0
-10646 -10642 0
-10646 10645 0
10646 10642 -10645 0
-10649 -10643 0
-10649 -10646 0
10649 10643 10646 0
-10651 -8541 0
-10651 -8542 0
10651 8541 8542 0
-10652 -10650 0
-10652 -10651 0
10652 10650 10651 0
-10653 -10649 0
-10653 10652 0
10653 10649 -10652 0
-10656 -10650 0
-10656 -10653 0
10656 10650 10653 0
-10658 -8542 0
-10658 -8543 0
10658 8542 8543 0
-10659 -10657 0
-10659 -10658 0
10659 10657 10658 0
-10660 -10656 0
-10660 10659 0
10660 10656 -10659 0
-10663 -10657 0
-10663 -10660 0
10663 10657 10660 0
-10665 -8543 0
-10665 -8544 0
10665 8543 8544 0
-10666 -10664 0
-10666 -10665 0
10666 10664 10665 0
-10667 -10663 0
-10667 10666 0
10667 10663 -10666 0
-10670 -10664 0
-10670 -10667 0
10670 10664 10667 0
-10672 -8544 0
-10672 -8545 0
10672 8544 8545 0
-10673 -10671 0
-10673 -10672 0
10673 10671 10672 0
-10674 -10670 0
-10674 10673 0
10674 10670 -10673 0
-10677 -10671 0
-10677 -10674 0
10677 10671 10674 0
-10679 -8545 0
-10679 -8546 0
10679 8545 8546 0
-10680 -10678 0
-10680 -10679 0
10680 10678 10679 0
-10681 -10677 0
-10681 10680 0
10681 10677 -10680 0
-10684 -10678 0
-10684 -10681 0
10684 10678 10681 0
-10686 -8546 0
-10686 -8547 0
10686 8546 8547 0
-10687 -10685 0
-10687 -10686 0
10687 10685 10686 0
-10688 -10684 0
-10688 10687 0
10688 10684 -10687 0
-10691 -10685 0
-10691 -10688 0
10691 10685 10688 0
-10693 -8547 0
-10693 -8548 0
10693 8547 8548 0
-10694 -10692 0
-10694 -10693 0
10694 10692 10693 0
-10695 -10691 0
-10695 10694 0
10695 10691 -10694 0
-10698 -10692 0
-10698 -10695 0
10698 10692 10695 0
-10700 -8548 0
-10700 -8549 0
10700 8548 8549 0
-10701 -10699 0
-10701 -10700 0
10701 10699 10700 0
-10702 -10698 0
-10702 10701 0
10702 10698 -10701 0
-10705 -10699 0
-10705 -10702 0
10705 10699 10702 0
-10707 -8549 0
-10707 -8550 0
10707 8549 8550 0
-10708 -10706 0
-10708 -10707 0
10708 10706 10707 0
-10709 -10705 0
-10709 10708 0
10709 10705 -10708 0
-10712 -10706 0
-10712 -10709 0
10712 10706 10709 0
-10714 -8550 0
-10714 -8551 0
10714 8550 8551 0
-10715 -10713 0
-10715 -10714 0
10715 10713 10714 0
-10716 -10712 0
-10716 10715 0
10716 10712 -10715 0
-10719 -10713 0
-10719 -10716 0
10719 10713 10716 0
-10721 -8551 0
-10721 -8552 0
10721 8551 8552 0
-10722 -10720 0
-10722 -10721 0
10722 10720 10721 0
-10723 -10719 0
-10723 10722 0
10723 10719 -10722 0
-10726 -10720 0
-10726 -10723 0
10726 10720 10723 0
-10728 -8552 0
-10728 -8553 0
10728 8552 8553 0
-10729 -10727 0
-10729 -10728 0
10729 10727 10728 0
-10730 -10726 0
-10730 10729 0
10730 10726 -10729 0
-10733 -10727 0
-10733 -10730 0
10733 10727 10730 0
-10735 -8553 0
-10735 -8554 0
10735 8553 8554 0
-10736 -10734 0
-10736 -10735 0
10736 10734 10735 0
-10737 -10733 0
-10737 10736 0
10737 10733 -10736 0
-10740 -10734 0
-10740 -10737 0
10740 10734 10737 0
-10742 -8554 0
-10742 -8555 0
10742 8554 8555 0
-10743 -10741 0
-10743 -10742 0
10743 10741 10742 0
-10744 -10740 0
-10744 10743 0
10744 10740 -10743 0
-10747 -10741 0
-10747 -10744 0
10747 10741 10744 0
-10749 -8555 0
-10749 -8556 0
10749 8555 8556 0
-10750 -10748 0
-10750 -10749 0
10750 10748 10749 0
-10751 -10747 0
-10751 10750 0
10751 10747 -10750 0
-10754 -10748 0
-10754 -10751 0
10754 10748 10751 0
-10756 -8556 0
-10756 -8557 0
10756 8556 8557 0
-10757 -10755 0
-10757 -10756 0
10757 10755 10756 0
-10758 -10754 0
-10758 10757 0
10758 10754 -10757 0
-10761 -10755 0
-10761 -10758 0
10761 10755 10758 0
-10763 -8557 0
-10763 -8558 0
10763 8557 8558 0
-10764 -10762 0
-10764 -10763 0
10764 10762 10763 0
-10765 -10761 0
-10765 10764 0
10765 10761 -10764 0
-10768 -10762 0
-10768 -10765 0
10768 10762 10765 0
-10770 -8558 0
-10770 -8559 0
10770 8558 8559 0
-10771 -10769 0
-10771 -10770 0
10771 10769 10770 0
-10772 -10768 0
-10772 10771 0
10772 10768 -10771 0
-10775 -10769 0
-10775 -10772 0
10775 10769 10772 0
-10777 -8559 0
-10777 -8560 0
10777 8559 8560 0
-10778 -10776 0
-10778 -10777 0
10778 10776 10777 0
-10779 -10775 0
-10779 10778 0
10779 10775 -10778 0
-10782 -10776 0
-10782 -10779 0
10782 10776 10779 0
-10784 -8560 0
-10784 -8561 0
10784 8560 8561 0
-10785 -10783 0
-10785 -10784 0
10785 10783 10784 0
-10786 -10782 0
-10786 10785 0
10786 10782 -10785 0
-10789 -10783 0
-10789 -10786 0
10789 10783 10786 0
-10791 -8561 0
-10791 -8562 0
10791 8561 8562 0
-10792 -10790 0
-10792 -10791 0
10792 10790 10791 0
-10793 -10789 0
-10793 10792 0
10793 10789 -10792 0
-10796 -10790 0
-10796 -10793 0
10796 10790 10793 0
-10798 -8562 0
-10798 -8563 0
10798 8562 8563 0
-10799 -10797 0
-10799 -10798 0
10799 10797 10798 0
-10800 -10796 0
-10800 10799 0
10800 10796 -10799 0
-10803 -10797 0
-10803 -10800 0
10803 10797 10800 0
-10805 -8563 0
-10805 -8564 0
10805 8563 8564 0
-10806 -10804 0
-10806 -10805 0
10806 10804 10805 0
-10807 -10803 0
-10807 10806 0
10807 10803 -10806 0
-10810 -10804 0
-10810 -10807 0
10810 10804 10807 0
-10811 8564 0
-10811 8565 0
10811 -8564 -8565 0
-10812 -8564 0
-10812 -8565 0
10812 8564 8565 0
-10813 -10811 0
-10813 -10812 0
10813 10811 10812 0
-10814 -10810 0
-10814 10813 0
10814 10810 -10813 0
-10815 10810 0
-10815 -10813 0
10815 -10810 10813 0
-10816 -10814 0
-10816 -10815 0
10816 10814 10815 0
-10808 10803 0
-10808 -10806 0
10808 -10803 10806 0
-10809 -10807 0
-10809 -10808 0
10809 10807 10808 0
-10801 10796 0
-10801 -10799 0
10801 -10796 10799 0
-10802 -10800 0
-10802 -10801 0
10802 10800 10801 0
-10794 10789 0
-10794 -10792 0
10794 -10789 10792 0
-10795 -10793 0
-10795 -10794 0
10795 10793 10794 0
-10787 10782 0
-10787 -10785 0
10787 -10782 10785 0
-10788 -10786 0
-10788 -10787 0
10788 10786 10787 0
-10780 10775 0
-10780 -10778 0
10780 -10775 10778 0
-10781 -10779 0
-10781 -10780 0
10781 10779 10780 0
-10773 10768 0
-10773 -10771 0
10773 -10768 10771 0
-10774 -10772 0
-10774 -10773 0
10774 10772 10773 0
-10766 10761 0
-10766 -10764 0
10766 -10761 10764 0
-10767 -10765 0
-10767 -10766 0
10767 10765 10766 0
-10759 10754 0
-10759 -10757 0
10759 -10754 10757 0
-10760 -10758 0
-10760 -10759 0
10760 10758 10759 0
-10752 10747 0
-10752 -10750 0
10752 -10747 10750 0
-10753 -10751 0
-10753 -10752 0
10753 10751 10752 0
-10745 10740 0
-10745 -10743 0
10745 -10740 10743 0
-10746 -10744 0
-10746 -10745 0
10746 10744 10745 0
-10738 10733 0
-10738 -10736 0
10738 -10733 10736 0
-10739 -10737 0
-10739 -10738 0
10739 10737 10738 0
-10731 10726 0
-10731 -10729 0
10731 -10726 10729 0
-10732 -10730 0
-10732 -10731 0
10732 10730 10731 0
-10724 10719 0
-10724 -10722 0
10724 -10719 10722 0
-10725 -10723 0
-10725 -10724 0
10725 10723 10724 0
-10717 10712 0
-10717 -10715 0
10717 -10712 10715 0
-10718 -10716 0
-10718 -10717 0
10718 10716 10717 0
-10710 10705 0
-10710 -10708 0
10710 -10705 10708 0
-10711 -10709 0
-10711 -10710 0
10711 10709 10710 0
-10703 10698 0
-10703 -10701 0
10703 -10698 10701 0
-10704 -10702 0
-10704 -10703 0
10704 10702 10703 0
-10696 10691 0
-10696 -10694 0
10696 -10691 10694 0
-10697 -10695 0
-10697 -10696 0
10697 10695 10696 0
-10689 10684 0
-10689 -10687 0
10689 -10684 10687 0
-10690 -10688 0
-10690 -10689 0
10690 10688 10689 0
-10682 10677 0
-10682 -10680 0
10682 -10677 10680 0
-10683 -10681 0
-10683 -10682 0
10683 10681 10682 0
-10675 10670 0
-10675 -10673 0
10675 -10670 10673 0
-10676 -10674 0
-10676 -10675 0
10676 10674 10675 0
-10668 10663 0
-10668 -10666 0
10668 -10663 10666 0
-10669 -10667 0
-10669 -10668 0
10669 10667 10668 0
-10661 10656 0
-10661 -10659 0
10661 -10656 10659 0
-10662 -10660 0
-10662 -10661 0
10662 10660 10661 0
-10654 10649 0
-10654 -10652 0
10654 -10649 10652 0
-10655 -10653 0
-10655 -10654 0
10655 10653 10654 0
-10647 10642 0
-10647 -10645 0
10647 -10642 10645 0
-10648 -10646 0
-10648 -10647 0
10648 10646 10647 0
-10640 10635 0
-10640 -10638 0
10640 -10635 10638 0
-10641 -10639 0
-10641 -10640 0
10641 10639 10640 0
-10633 10628 0
-10633 -10631 0
10633 -10628 10631 0
-10634 -10632 0
-10634 -10633 0
10634 10632 10633 0
-10626 10621 0
-10626 -10624 0
10626 -10621 10624 0
-10627 -10625 0
-10627 -10626 0
10627 10625 10626 0
-10619 10614 0
-10619 -10617 0
10619 -10614 10617 0
-10620 -10618 0
-10620 -10619 0
10620 10618 10619 0
-10612 10607 0
-10612 -10610 0
10612 -10607 10610 0
-10613 -10611 0
-10613 -10612 0
10613 10611 10612 0
-10605 10600 0
-10605 -10603 0
10605 -10600 10603 0
-10606 -10604 0
-10606 -10605 0
10606 10604 10605 0
-10598 10593 0
-10598 -10596 0
10598 -10593 10596 0
-10599 -10597 0
-10599 -10598 0
10599 10597 10598 0
-10591 10586 0
-10591 -10589 0
10591 -10586 10589 0
-10592 -10590 0
-10592 -10591 0
10592 10590 10591 0
-10584 10579 0
-10584 -10582 0
10584 -10579 10582 0
-10585 -10583 0
-10585 -10584 0
10585 10583 10584 0
-10577 10572 0
-10577 -10575 0
10577 -10572 10575 0
-10578 -10576 0
-10578 -10577 0
10578 10576 10577 0
-10570 10565 0
-10570 -10568 0
10570 -10565 10568 0
-10571 -10569 0
-10571 -10570 0
10571 10569 10570 0
-10563 10558 0
-10563 -10561 0
10563 -10558 10561 0
-10564 -10562 0
-10564 -10563 0
10564 10562 10563 0
-10556 10551 0
-10556 -10554 0
10556 -10551 10554 0
-10557 -10555 0
-10557 -10556 0
10557 10555 10556 0
-10549 10544 0
-10549 -10547 0
10549 -10544 10547 0
-10550 -10548 0
-10550 -10549 0
10550 10548 10549 0
-10542 10537 0
-10542 -10540 0
10542 -10537 10540 0
-10543 -10541 0
-10543 -10542 0
10543 10541 10542 0
-10535 10530 0
-10535 -10533 0
10535 -10530 10533 0
-10536 -10534 0
-10536 -10535 0
10536 10534 10535 0
-10528 10523 0
-10528 -10526 0
10528 -10523 10526 0
-10529 -10527 0
-10529 -10528 0
10529 10527 10528 0
-10521 10516 0
-10521 -10519 0
10521 -10516 10519 0
-10522 -10520 0
-10522 -10521 0
10522 10520 10521 0
-10514 10509 0
-10514 -10512 0
10514 -10509 10512 0
-10515 -10513 0
-10515 -10514 0
10515 10513 10514 0
-10507 10502 0
-10507 -10505 0
10507 -10502 10505 0
-10508 -10506 0
-10508 -10507 0
10508 10506 10507 0
-10500 10495 0
-10500 -10498 0
10500 -10495 10498 0
-10501 -10499 0
-10501 -10500 0
10501 10499 10500 0
-10493 10488 0
-10493 -10491 0
10493 -10488 10491 0
-10494 -10492 0
-10494 -10493 0
10494 10492 10493 0
-10486 10481 0
-10486 -10484 0
10486 -10481 10484 0
-10487 -10485 0
-10487 -10486 0
10487 10485 10486 0
-10479 10474 0
-10479 -10477 0
10479 -10474 10477 0
-10480 -10478 0
-10480 -10479 0
10480 10478 10479 0
-10472 10467 0
-10472 -10470 0
10472 -10467 10470 0
-10473 -10471 0
-10473 -10472 0
10473 10471 10472 0
-10465 10460 0
-10465 -10463 0
10465 -10460 10463 0
-10466 -10464 0
-10466 -10465 0
10466 10464 10465 0
-10458 10453 0
-10458 -10456 0
10458 -10453 10456 0
-10459 -10457 0
-10459 -10458 0
10459 10457 10458 0
-10451 10446 0
-10451 -10449 0
10451 -10446 10449 0
-10452 -10450 0
-10452 -10451 0
10452 10450 10451 0
-10444 10439 0
-10444 -10442 0
10444 -10439 10442 0
-10445 -10443 0
-10445 -10444 0
10445 10443 10444 0
-10437 10432 0
-10437 -10435 0
10437 -10432 10435 0
-10438 -10436 0
-10438 -10437 0
10438 10436 10437 0
-10430 10425 0
-10430 -10428 0
10430 -10425 10428 0
-10431 -10429 0
-10431 -10430 0
10431 10429 10430 0
-10423 10418 0
-10423 -10421 0
10423 -10418 10421 0
-10424 -10422 0
-10424 -10423 0
10424 10422 10423 0
-10416 10411 0
-10416 -10414 0
10416 -10411 10414 0
-10417 -10415 0
-10417 -10416 0
10417 10415 10416 0
-10409 10404 0
-10409 -10407 0
10409 -10404 10407 0
-10410 -10408 0
-10410 -10409 0
10410 10408 10409 0
-10402 10397 0
-10402 -10400 0
10402 -10397 10400 0
-10403 -10401 0
-10403 -10402 0
10403 10401 10402 0
-10395 10390 0
-10395 -10393 0
10395 -10390 10393 0
-10396 -10394 0
-10396 -10395 0
10396 10394 10395 0
-10388 -10381 0
-10388 -10386 0
10388 10381 10386 0
-10389 -10387 0
-10389 -10388 0
10389 10387 10388 0
-10382 -8502 0
-10382 -8503 0
10382 8502 8503 0
-10383 -10381 0
-10383 -10382 0
10383 10381 10382 0
-10818 8502 0
-10818 10383 0
10818 -8502 -10383 0
-10821 10389 0
-10821 10818 0
10821 -10389 -10818 0
-10824 10396 0
-10824 10821 0
10824 -10396 -10821 0
-10827 10403 0
-10827 10824 0
10827 -10403 -10824 0
-10830 10410 0
-10830 10827 0
10830 -10410 -10827 0
-10833 10417 0
-10833 10830 0
10833 -10417 -10830 0
-10836 10424 0
-10836 10833 0
10836 -10424 -10833 0
-10839 10431 0
-10839 10836 0
10839 -10431 -10836 0
-10842 10438 0
-10842 10839 0
10842 -10438 -10839 0
-10845 10445 0
-10845 10842 0
10845 -10445 -10842 0
-10848 10452 0
-10848 10845 0
10848 -10452 -10845 0
-10851 10459 0
-10851 10848 0
10851 -10459 -10848 0
-10854 10466 0
-10854 10851 0
10854 -10466 -10851 0
-10857 10473 0
-10857 10854 0
10857 -10473 -10854 0
-10860 10480 0
-10860 10857 0
10860 -10480 -10857 0
-10863 10487 0
-10863 10860 0
10863 -10487 -10860 0
-10866 10494 0
-10866 10863 0
10866 -10494 -10863 0
-10869 10501 0
-10869 10866 0
10869 -10501 -10866 0
-10872 10508 0
-10872 10869 0
10872 -10508 -10869 0
-10875 10515 0
-10875 10872 0
10875 -10515 -10872 0
-10878 10522 0
-10878 10875 0
10878 -10522 -10875 0
-10881 10529 0
-10881 10878 0
10881 -10529 -10878 0
-10884 10536 0
-10884 10881 0
10884 -10536 -10881 0
-10887 10543 0
-10887 10884 0
10887 -10543 -10884 0
-10890 10550 0
-10890 10887 0
10890 -10550 -10887 0
-10893 10557 0
-10893 10890 0
10893 -10557 -10890 0
-10896 10564 0
-10896 10893 0
10896 -10564 -10893 0
-10899 10571 0
-10899 10896 0
10899 -10571 -10896 0
-10902 10578 0
-10902 10899 0
10902 -10578 -10899 0
-10905 10585 0
-10905 10902 0
10905 -10585 -10902 0
-10908 10592 0
-10908 10905 0
10908 -10592 -10905 0
-10911 10599 0
-10911 10908 0
10911 -10599 -10908 0
-10914 10606 0
-10914 10911 0
10914 -10606 -10911 0
-10917 10613 0
-10917 10914 0
10917 -10613 -10914 0
-10920 10620 0
-10920 10917 0
10920 -10620 -10917 0
-10923 10627 0
-10923 10920 0
10923 -10627 -10920 0
-10926 10634 0
-10926 10923 0
10926 -10634 -10923 0
-10929 10641 0
-10929 10926 0
10929 -10641 -10926 0
-10932 10648 0
-10932 10929 0
10932 -10648 -10929 0
-10935 10655 0
-10935 10932 0
10935 -10655 -10932 0
-10938 10662 0
-10938 10935 0
10938 -10662 -10935 0
-10941 10669 0
-10941 10938 0
10941 -10669 -10938 0
-10944 10676 0
-10944 10941 0
10944 -10676 -10941 0
-10947 10683 0
-10947 10944 0
10947 -10683 -10944 0
-10950 10690 0
-10950 10947 0
10950 -10690 -10947 0
-10953 10697 0
-10953 10950 0
10953 -10697 -10950 0
-10956 10704 0
-10956 10953 0
10956 -10704 -10953 0
-10959 10711 0
-10959 10956 0
10959 -10711 -10956 0
-10962 10718 0
-10962 10959 0
10962 -10718 -10959 0
-10965 10725 0
-10965 10962 0
10965 -10725 -10962 0
-10968 10732 0
-10968 10965 0
10968 -10732 -10965 0
-10971 10739 0
-10971 10968 0
10971 -10739 -10968 0
-10974 10746 0
-10974 10971 0
10974 -10746 -10971 0
-10977 10753 0
-10977 10974 0
10977 -10753 -10974 0
-10980 10760 0
-10980 10977 0
10980 -10760 -10977 0
-10983 10767 0
-10983 10980 0
10983 -10767 -10980 0
-10986 10774 0
-10986 10983 0
10986 -10774 -10983 0
-10989 10781 0
-10989 10986 0
10989 -10781 -10986 0
-10992 10788 0
-10992 10989 0
10992 -10788 -10989 0
-10995 10795 0
-10995 10992 0
10995 -10795 -10992 0
-10998 10802 0
-10998 10995 0
10998 -10802 -10995 0
-11001 10809 0
-11001 10998 0
11001 -10809 -10998 0
-11004 10816 0
-11004 11001 0
11004 -10816 -11001 0
-11005 -10816 0
-11005 -11001 0
11005 10816 11001 0
-11006 -11004 0
-11006 -11005 0
11006 11004 11005 0
-11193 10379 0
-11193 -11006 0
11193 -10379 11006 0
-11194 -10379 0
-11194 11006 0
11194 10379 -11006 0
-11195 -11193 0
-11195 -11194 0
11195 11193 11194 0
10378 -17244 0
-10378 17244 0
-11002 -10809 0
-11002 -10998 0
11002 10809 10998 0
-11003 -11001 0
-11003 -11002 0
11003 11001 11002 0
-11190 10378 0
-11190 -11003 0
11190 -10378 11003 0
-11191 -10378 0
-11191 11003 0
11191 10378 -11003 0
-11192 -11190 0
-11192 -11191 0
11192 11190 11191 0
10377 -17243 0
-10377 17243 0
-10999 -10802 0
-10999 -10995 0
10999 10802 10995 0
-11000 -10998 0
-11000 -10999 0
11000 10998 10999 0
-11187 10377 0
-11187 -11000 0
11187 -10377 11000 0
-11188 -10377 0
-11188 11000 0
11188 10377 -11000 0
-11189 -11187 0
-11189 -11188 0
11189 11187 11188 0
10376 -17242 0
-10376 17242 0
-10996 -10795 0
-10996 -10992 0
10996 10795 10992 0
-10997 -10995 0
-10997 -10996 0
10997 10995 10996 0
-11184 10376 0
-11184 -10997 0
11184 -10376 10997 0
-11185 -10376 0
-11185 10997 0
11185 10376 -10997 0
-11186 -11184 0
-11186 -11185 0
11186 11184 11185 0
10375 -17241 0
-10375 17241 0
-10993 -10788 0
-10993 -10989 0
10993 10788 10989 0
-10994 -10992 0
-10994 -10993 0
10994 10992 10993 0
-11181 10375 0
-11181 -10994 0
11181 -10375 10994 0
-11182 -10375 0
-11182 10994 0
11182 10375 -10994 0
-11183 -11181 0
-11183 -11182 0
11183 11181 11182 0
10374 -17240 0
-10374 17240 0
-10990 -10781 0
-10990 -10986 0
10990 10781 10986 0
-10991 -10989 0
-10991 -10990 0
10991 10989 10990 0
-11178 10374 0
-11178 -10991 0
11178 -10374 10991 0
-11179 -10374 0
-11179 10991 0
11179 10374 -10991 0
-11180 -11178 0
-11180 -11179 0
11180 11178 11179 0
10373 -17239 0
-10373 17239 0
-10987 -10774 0
-10987 -10983 0
10987 10774 10983 0
-10988 -10986 0
-10988 -10987 0
10988 10986 10987 0
-11175 10373 0
-11175 -10988 0
11175 -10373 10988 0
-11176 -10373 0
-11176 10988 0
11176 10373 -10988 0
-11177 -11175 0
-11177 -11176 0
11177 11175 11176 0
10372 -17238 0
-10372 17238 0
-10984 -10767 0
-10984 -10980 0
10984 10767 10980 0
-10985 -10983 0
-10985 -10984 0
10985 10983 10984 0
-11172 10372 0
-11172 -10985 0
11172 -10372 10985 0
-11173 -10372 0
-11173 10985 0
11173 10372 -10985 0
-11174 -11172 0
-11174 -11173 0
11174 11172 11173 0
10371 -17237 0
-10371 17237 0
-10981 -10760 0
-10981 -10977 0
10981 10760 10977 0
-10982 -10980 0
-10982 -10981 0
10982 10980 10981 0
-11169 10371 0
-11169 -10982 0
11169 -10371 10982 0
-11170 -10371 0
-11170 10982 0
11170 10371 -10982 0
-11171 -11169 0
-11171 -11170 0
11171 11169 11170 0
10370 -17236 0
-10370 17236 0
-10978 -10753 0
-10978 -10974 0
10978 10753 10974 0
-10979 -10977 0
-10979 -10978 0
10979 10977 10978 0
-11166 10370 0
-11166 -10979 0
11166 -10370 10979 0
-11167 -10370 0
-11167 10979 0
11167 10370 -10979 0
-11168 -11166 0
-11168 -11167 0
11168 11166 11167 0
10369 -17235 0
-10369 17235 0
-10975 -10746 0
-10975 -10971 0
10975 10746 10971 0
-10976 -10974 0
-10976 -10975 0
10976 10974 10975 0
-11163 10369 0
-11163 -10976 0
11163 -10369 10976 0
-11164 -10369 0
-11164 10976 0
11164 10369 -10976 0
-11165 -11163 0
-11165 -11164 0
11165 11163 11164 0
10368 -17234 0
-10368 17234 0
-10972 -10739 0
-10972 -10968 0
10972 10739 10968 0
-10973 -10971 0
-10973 -10972 0
10973 10971 10972 0
-11160 10368 0
-11160 -10973 0
11160 -10368 10973 0
-11161 -10368 0
-11161 10973 0
11161 10368 -10973 0
-11162 -11160 0
-11162 -11161 0
11162 11160 11161 0
10367 -17233 0
-10367 17233 0
-10969 -10732 0
-10969 -10965 0
10969 10732 10965 0
-10970 -10968 0
-10970 -10969 0
10970 10968 10969 0
-11157 10367 0
-11157 -10970 0
11157 -10367 10970 0
-11158 -10367 0
-11158 10970 0
11158 10367 -10970 0
-11159 -11157 0
-11159 -11158 0
11159 11157 11158 0
10366 -17232 0
-10366 17232 0
-10966 -10725 0
-10966 -10962 0
10966 10725 10962 0
-10967 -10965 0
-10967 -10966 0
10967 10965 10966 0
-11154 10366 0
-11154 -10967 0
11154 -10366 10967 0
-11155 -10366 0
-11155 10967 0
11155 10366 -10967 0
-11156 -11154 0
-11156 -11155 0
11156 11154 11155 0
10365 -17231 0
-10365 17231 0
-10963 -10718 0
-10963 -10959 0
10963 10718 10959 0
-10964 -10962 0
-10964 -10963 0
10964 10962 10963 0
-11151 10365 0
-11151 -10964 0
11151 -10365 10964 0
-11152 -10365 0
-11152 10964 0
11152 10365 -10964 0
-11153 -11151 0
-11153 -11152 0
11153 11151 11152 0
10364 -17230 0
-10364 17230 0
-10960 -10711 0
-10960 -10956 0
10960 10711 10956 0
-10961 -10959 0
-10961 -10960 0
10961 10959 10960 0
-11148 10364 0
-11148 -10961 0
11148 -10364 10961 0
-11149 -10364 0
-11149 10961 0
11149 10364 -10961 0
-11150 -11148 0
-11150 -11149 0
11150 11148 11149 0
10363 -17229 0
-10363 17229 0
-10957 -10704 0
-10957 -10953 0
10957 10704 10953 0
-10958 -10956 0
-10958 -10957 0
10958 10956 10957 0
-11145 10363 0
-11145 -10958 0
11145 -10363 10958 0
-11146 -10363 0
-11146 10958 0
11146 10363 -10958 0
-11147 -11145 0
-11147 -11146 0
11147 11145 11146 0
10362 -17228 0
-10362 17228 0
-10954 -10697 0
-10954 -10950 0
10954 10697 10950 0
-10955 -10953 0
-10955 -10954 0
10955 10953 10954 0
-11142 10362 0
-11142 -10955 0
11142 -10362 10955 0
-11143 -10362 0
-11143 10955 0
11143 10362 -10955 0
-11144 -11142 0
-11144 -11143 0
11144 11142 11143 0
10361 -17227 0
-10361 17227 0
-10951 -10690 0
-10951 -10947 0
10951 10690 10947 0
-10952 -10950 0
-10952 -10951 0
10952 10950 10951 0
-11139 10361 0
-11139 -10952 0
11139 -10361 10952 0
-11140 -10361 0
-11140 10952 0
11140 10361 -10952 0
-11141 -11139 0
-11141 -11140 0
11141 11139 11140 0
10360 -17226 0
-10360 17226 0
-10948 -10683 0
-10948 -10944 0
10948 10683 10944 0
-10949 -10947 0
-10949 -10948 0
10949 10947 10948 0
-11136 10360 0
-11136 -10949 0
11136 -10360 10949 0
-11137 -10360 0
-11137 10949 0
11137 10360 -10949 0
-11138 -11136 0
-11138 -11137 0
11138 11136 11137 0
10359 -17225 0
-10359 17225 0
-10945 -10676 0
-10945 -10941 0
10945 10676 10941 0
-10946 -10944 0
-10946 -10945 0
10946 10944 10945 0
-11133 10359 0
-11133 -10946 0
11133 -10359 10946 0
-11134 -10359 0
-11134 10946 0
11134 10359 -10946 0
-11135 -11133 0
-11135 -11134 0
11135 11133 11134 0
10358 -17224 0
-10358 17224 0
-10942 -10669 0
-10942 -10938 0
10942 10669 10938 0
-10943 -10941 0
-10943 -10942 0
10943 10941 10942 0
-11130 10358 0
-11130 -10943 0
11130 -10358 10943 0
-11131 -10358 0
-11131 10943 0
11131 10358 -10943 0
-11132 -11130 0
-11132 -11131 0
11132 11130 11131 0
10357 -17223 0
-10357 17223 0
-10939 -10662 0
-10939 -10935 0
10939 10662 10935 0
-10940 -10938 0
-10940 -10939 0
10940 10938 10939 0
-11127 10357 0
-11127 -10940 0
11127 -10357 10940 0
-11128 -10357 0
-11128 10940 0
11128 10357 -10940 0
-11129 -11127 0
-11129 -11128 0
11129 11127 11128 0
10356 -17222 0
-10356 17222 0
-10936 -10655 0
-10936 -10932 0
10936 10655 10932 0
-10937 -10935 0
-10937 -10936 0
10937 10935 10936 0
-11124 10356 0
-11124 -10937 0
11124 -10356 10937 0
-11125 -10356 0
-11125 10937 0
11125 10356 -10937 0
-11126 -11124 0
-11126 -11125 0
11126 11124 11125 0
10355 -17221 0
-10355 17221 0
-10933 -10648 0
-10933 -10929 0
10933 10648 10929 0
-10934 -10932 0
-10934 -10933 0
10934 10932 10933 0
-11121 10355 0
-11121 -10934 0
11121 -10355 10934 0
-11122 -10355 0
-11122 10934 0
11122 10355 -10934 0
-11123 -11121 0
-11123 -11122 0
11123 11121 11122 0
10354 -17220 0
-10354 17220 0
-10930 -10641 0
-10930 -10926 0
10930 10641 10926 0
-10931 -10929 0
-10931 -10930 0
10931 10929 10930 0
-11118 10354 0
-11118 -10931 0
11118 -10354 10931 0
-11119 -10354 0
-11119 10931 0
11119 10354 -10931 0
-11120 -11118 0
-11120 -11119 0
11120 11118 11119 0
10353 -17219 0
-10353 17219 0
-10927 -10634 0
-10927 -10923 0
10927 10634 10923 0
-10928 -10926 0
-10928 -10927 0
10928 10926 10927 0
-11115 10353 0
-11115 -10928 0
11115 -10353 10928 0
-11116 -10353 0
-11116 10928 0
11116 10353 -10928 0
-11117 -11115 0
-11117 -11116 0
11117 11115 11116 0
10352 -17218 0
-10352 17218 0
-10924 -10627 0
-10924 -10920 0
10924 10627 10920 0
-10925 -10923 0
-10925 -10924 0
10925 10923 10924 0
-11112 10352 0
-11112 -10925 0
11112 -10352 10925 0
-11113 -10352 0
-11113 10925 0
11113 10352 -10925 0
-11114 -11112 0
-11114 -11113 0
11114 11112 11113 0
10351 -17217 0
-10351 17217 0
-10921 -10620 0
-10921 -10917 0
10921 10620 10917 0
-10922 -10920 0
-10922 -10921 0
10922 10920 10921 0
-11109 10351 0
-11109 -10922 0
11109 -10351 10922 0
-11110 -10351 0
-11110 10922 0
11110 10351 -10922 0
-11111 -11109 0
-11111 -11110 0
11111 11109 11110 0
10350 -17216 0
-10350 17216 0
-10918 -10613 0
-10918 -10914 0
10918 10613 10914 0
-10919 -10917 0
-10919 -10918 0
10919 10917 10918 0
-11106 10350 0
-11106 -10919 0
11106 -10350 10919 0
-11107 -10350 0
-11107 10919 0
11107 10350 -10919 0
-11108 -11106 0
-11108 -11107 0
11108 11106 11107 0
10349 -17215 0
-10349 17215 0
-10915 -10606 0
-10915 -10911 0
10915 10606 10911 0
-10916 -10914 0
-10916 -10915 0
10916 10914 10915 0
-11103 10349 0
-11103 -10916 0
11103 -10349 10916 0
-11104 -10349 0
-11104 10916 0
11104 10349 -10916 0
-11105 -11103 0
-11105 -11104 0
11105 11103 11104 0
10348 -17214 0
-10348 17214 0
-10912 -10599 0
-10912 -10908 0
10912 10599 10908 0
-10913 -10911 0
-10913 -10912 0
10913 10911 10912 0
-11100 10348 0
-11100 -10913 0
11100 -10348 10913 0
-11101 -10348 0
-11101 10913 0
11101 10348 -10913 0
-11102 -11100 0
-11102 -11101 0
11102 11100 11101 0
10347 -17213 0
-10347 17213 0
-10909 -10592 0
-10909 -10905 0
10909 10592 10905 0
-10910 -10908 0
-10910 -10909 0
10910 10908 10909 0
-11097 10347 0
-11097 -10910 0
11097 -10347 10910 0
-11098 -10347 0
-11098 10910 0
11098 10347 -10910 0
-11099 -11097 0
-11099 -11098 0
11099 11097 11098 0
10346 -17212 0
-10346 17212 0
-10906 -10585 0
-10906 -10902 0
10906 10585 10902 0
-10907 -10905 0
-10907 -10906 0
10907 10905 10906 0
-11094 10346 0
-11094 -10907 0
11094 -10346 10907 0
-11095 -10346 0
-11095 10907 0
11095 10346 -10907 0
-11096 -11094 0
-11096 -11095 0
11096 11094 11095 0
10345 -17211 0
-10345 17211 0
-10903 -10578 0
-10903 -10899 0
10903 10578 10899 0
-10904 -10902 0
-10904 -10903 0
10904 10902 10903 0
-11091 10345 0
-11091 -10904 0
11091 -10345 10904 0
-11092 -10345 0
-11092 10904 0
11092 10345 -10904 0
-11093 -11091 0
-11093 -11092 0
11093 11091 11092 0
10344 -17210 0
-10344 17210 0
-10900 -10571 0
-10900 -10896 0
10900 10571 10896 0
-10901 -10899 0
-10901 -10900 0
10901 10899 10900 0
-11088 10344 0
-11088 -10901 0
11088 -10344 10901 0
-11089 -10344 0
-11089 10901 0
11089 10344 -10901 0
-11090 -11088 0
-11090 -11089 0
11090 11088 11089 0
10343 -17209 0
-10343 17209 0
-10897 -10564 0
-10897 -10893 0
10897 10564 10893 0
-10898 -10896 0
-10898 -10897 0
10898 10896 10897 0
-11085 10343 0
-11085 -10898 0
11085 -10343 10898 0
-11086 -10343 0
-11086 10898 0
11086 10343 -10898 0
-11087 -11085 0
-11087 -11086 0
11087 11085 11086 0
10342 -17208 0
-10342 17208 0
-10894 -10557 0
-10894 -10890 0
10894 10557 10890 0
-10895 -10893 0
-10895 -10894 0
10895 10893 10894 0
-11082 10342 0
-11082 -10895 0
11082 -10342 10895 0
-11083 -10342 0
-11083 10895 0
11083 10342 -10895 0
-11084 -11082 0
-11084 -11083 0
11084 11082 11083 0
10341 -17207 0
-10341 17207 0
-10891 -10550 0
-10891 -10887 0
10891 10550 10887 0
-10892 -10890 0
-10892 -10891 0
10892 10890 10891 0
-11079 10341 0
-11079 -10892 0
11079 -10341 10892 0
-11080 -10341 0
-11080 10892 0
11080 10341 -10892 0
-11081 -11079 0
-11081 -11080 0
11081 11079 11080 0
10340 -17206 0
-10340 17206 0
-10888 -10543 0
-10888 -10884 0
10888 10543 10884 0
-10889 -10887 0
-10889 -10888 0
10889 10887 10888 0
-11076 10340 0
-11076 -10889 0
11076 -10340 10889 0
-11077 -10340 0
-11077 10889 0
11077 10340 -10889 0
-11078 -11076 0
-11078 -11077 0
11078 11076 11077 0
10339 -17205 0
-10339 17205 0
-10885 -10536 0
-10885 -10881 0
10885 10536 10881 0
-10886 -10884 0
-10886 -10885 0
10886 10884 10885 0
-11073 10339 0
-11073 -10886 0
11073 -10339 10886 0
-11074 -10339 0
-11074 10886 0
11074 10339 -10886 0
-11075 -11073 0
-11075 -11074 0
11075 11073 11074 0
10338 -17204 0
-10338 17204 0
-10882 -10529 0
-10882 -10878 0
10882 10529 10878 0
-10883 -10881 0
-10883 -10882 0
10883 10881 10882 0
-11070 10338 0
-11070 -10883 0
11070 -10338 10883 0
-11071 -10338 0
-11071 10883 0
11071 10338 -10883 0
-11072 -11070 0
-11072 -11071 0
11072 11070 11071 0
10337 -17203 0
-10337 17203 0
-10879 -10522 0
-10879 -10875 0
10879 10522 10875 0
-10880 -10878 0
-10880 -10879 0
10880 10878 10879 0
-11067 10337 0
-11067 -10880 0
11067 -10337 10880 0
-11068 -10337 0
-11068 10880 0
11068 10337 -10880 0
-11069 -11067 0
-11069 -11068 0
11069 11067 11068 0
10336 -17202 0
-10336 17202 0
-10876 -10515 0
-10876 -10872 0
10876 10515 10872 0
-10877 -10875 0
-10877 -10876 0
10877 10875 10876 0
-11064 10336 0
-11064 -10877 0
11064 -10336 10877 0
-11065 -10336 0
-11065 10877 0
11065 10336 -10877 0
-11066 -11064 0
-11066 -11065 0
11066 11064 11065 0
10335 -17201 0
-10335 17201 0
-10873 -10508 0
-10873 -10869 0
10873 10508 10869 0
-10874 -10872 0
-10874 -10873 0
10874 10872 10873 0
-11061 10335 0
-11061 -10874 0
11061 -10335 10874 0
-11062 -10335 0
-11062 10874 0
11062 10335 -10874 0
-11063 -11061 0
-11063 -11062 0
11063 11061 11062 0
10334 -17200 0
-10334 17200 0
-10870 -10501 0
-10870 -10866 0
10870 10501 10866 0
-10871 -10869 0
-10871 -10870 0
10871 10869 10870 0
-11058 10334 0
-11058 -10871 0
11058 -10334 10871 0
-11059 -10334 0
-11059 10871 0
11059 10334 -10871 0
-11060 -11058 0
-11060 -11059 0
11060 11058 11059 0
10333 -17199 0
-10333 17199 0
-10867 -10494 0
-10867 -10863 0
10867 10494 10863 0
-10868 -10866 0
-10868 -10867 0
10868 10866 10867 0
-11055 10333 0
-11055 -10868 0
11055 -10333 10868 0
-11056 -10333 0
-11056 10868 0
11056 10333 -10868 0
-11057 -11055 0
-11057 -11056 0
11057 11055 11056 0
10332 -17198 0
-10332 17198 0
-10864 -10487 0
-10864 -10860 0
10864 10487 10860 0
-10865 -10863 0
-10865 -10864 0
10865 10863 10864 0
-11052 10332 0
-11052 -10865 0
11052 -10332 10865 0
-11053 -10332 0
-11053 10865 0
11053 10332 -10865 0
-11054 -11052 0
-11054 -11053 0
11054 11052 11053 0
10331 -17197 0
-10331 17197 0
-10861 -10480 0
-10861 -10857 0
10861 10480 10857 0
-10862 -10860 0
-10862 -10861 0
10862 10860 10861 0
-11049 10331 0
-11049 -10862 0
11049 -10331 10862 0
-11050 -10331 0
-11050 10862 0
11050 10331 -10862 0
-11051 -11049 0
-11051 -11050 0
11051 11049 11050 0
10330 -17196 0
-10330 17196 0
-10858 -10473 0
-10858 -10854 0
10858 10473 10854 0
-10859 -10857 0
-10859 -10858 0
10859 10857 10858 0
-11046 10330 0
-11046 -10859 0
11046 -10330 10859 0
-11047 -10330 0
-11047 10859 0
11047 10330 -10859 0
-11048 -11046 0
-11048 -11047 0
11048 11046 11047 0
10329 -17195 0
-10329 17195 0
-10855 -10466 0
-10855 -10851 0
10855 10466 10851 0
-10856 -10854 0
-10856 -10855 0
10856 10854 10855 0
-11043 10329 0
-11043 -10856 0
11043 -10329 10856 0
-11044 -10329 0
-11044 10856 0
11044 10329 -10856 0
-11045 -11043 0
-11045 -11044 0
11045 11043 11044 0
10328 -17194 0
-10328 17194 0
-10852 -10459 0
-10852 -10848 0
10852 10459 10848 0
-10853 -10851 0
-10853 -10852 0
10853 10851 10852 0
-11040 10328 0
-11040 -10853 0
11040 -10328 10853 0
-11041 -10328 0
-11041 10853 0
11041 10328 -10853 0
-11042 -11040 0
-11042 -11041 0
11042 11040 11041 0
10327 -17193 0
-10327 17193 0
-10849 -10452 0
-10849 -10845 0
10849 10452 10845 0
-10850 -10848 0
-10850 -10849 0
10850 10848 10849 0
-11037 10327 0
-11037 -10850 0
11037 -10327 10850 0
-11038 -10327 0
-11038 10850 0
11038 10327 -10850 0
-11039 -11037 0
-11039 -11038 0
11039 11037 11038 0
10326 -17192 0
-10326 17192 0
-10846 -10445 0
-10846 -10842 0
10846 10445 10842 0
-10847 -10845 0
-10847 -10846 0
10847 10845 10846 0
-11034 10326 0
-11034 -10847 0
11034 -10326 10847 0
-11035 -10326 0
-11035 10847 0
11035 10326 -10847 0
-11036 -11034 0
-11036 -11035 0
11036 11034 11035 0
10325 -17191 0
-10325 17191 0
-10843 -10438 0
-10843 -10839 0
10843 10438 10839 0
-10844 -10842 0
-10844 -10843 0
10844 10842 10843 0
-11031 10325 0
-11031 -10844 0
11031 -10325 10844 0
-11032 -10325 0
-11032 10844 0
11032 10325 -10844 0
-11033 -11031 0
-11033 -11032 0
11033 11031 11032 0
10324 -17190 0
-10324 17190 0
-10840 -10431 0
-10840 -10836 0
10840 10431 10836 0
-10841 -10839 0
-10841 -10840 0
10841 10839 10840 0
-11028 10324 0
-11028 -10841 0
11028 -10324 10841 0
-11029 -10324 0
-11029 10841 0
11029 10324 -10841 0
-11030 -11028 0
-11030 -11029 0
11030 11028 11029 0
10323 -17189 0
-10323 17189 0
-10837 -10424 0
-10837 -10833 0
10837 10424 10833 0
-10838 -10836 0
-10838 -10837 0
10838 10836 10837 0
-11025 10323 0
-11025 -10838 0
11025 -10323 10838 0
-11026 -10323 0
-11026 10838 0
11026 10323 -10838 0
-11027 -11025 0
-11027 -11026 0
11027 11025 11026 0
10322 -17188 0
-10322 17188 0
-10834 -10417 0
-10834 -10830 0
10834 10417 10830 0
-10835 -10833 0
-10835 -10834 0
10835 10833 10834 0
-11022 10322 0
-11022 -10835 0
11022 -10322 10835 0
-11023 -10322 0
-11023 10835 0
11023 10322 -10835 0
-11024 -11022 0
-11024 -11023 0
11024 11022 11023 0
10321 -17187 0
-10321 17187 0
-10831 -10410 0
-10831 -10827 0
10831 10410 10827 0
-10832 -10830 0
-10832 -10831 0
10832 10830 10831 0
-11019 10321 0
-11019 -10832 0
11019 -10321 10832 0
-11020 -10321 0
-11020 10832 0
11020 10321 -10832 0
-11021 -11019 0
-11021 -11020 0
11021 11019 11020 0
10320 -17186 0
-10320 17186 0
-10828 -10403 0
-10828 -10824 0
10828 10403 10824 0
-10829 -10827 0
-10829 -10828 0
10829 10827 10828 0
-11016 10320 0
-11016 -10829 0
11016 -10320 10829 0
-11017 -10320 0
-11017 10829 0
11017 10320 -10829 0
-11018 -11016 0
-11018 -11017 0
11018 11016 11017 0
10319 -17185 0
-10319 17185 0
-10825 -10396 0
-10825 -10821 0
10825 10396 10821 0
-10826 -10824 0
-10826 -10825 0
10826 10824 10825 0
-11013 10319 0
-11013 -10826 0
11013 -10319 10826 0
-11014 -10319 0
-11014 10826 0
11014 10319 -10826 0
-11015 -11013 0
-11015 -11014 0
11015 11013 11014 0
10317 -17183 0
-10317 17183 0
-10819 -8502 0
-10819 -10383 0
10819 8502 10383 0
-10820 -10818 0
-10820 -10819 0
10820 10818 10819 0
-11007 10317 0
-11007 -10820 0
11007 -10317 10820 0
-11008 -10317 0
-11008 10820 0
11008 10317 -10820 0
-11009 -11007 0
-11009 -11008 0
11009 11007 11008 0
10318 -17184 0
-10318 17184 0
-10822 -10389 0
-10822 -10818 0
10822 10389 10818 0
-10823 -10821 0
-10823 -10822 0
10823 10821 10822 0
-11010 10318 0
-11010 -10823 0
11010 -10318 10823 0
-11011 -10318 0
-11011 10823 0
11011 10318 -10823 0
-11012 -11010 0
-11012 -11011 0
11012 11010 11011 0
-11196 11009 0
-11196 11012 0
11196 -11009 -11012 0
-11197 11015 0
-11197 11196 0
11197 -11015 -11196 0
-11198 11018 0
-11198 11197 0
11198 -11018 -11197 0
-11199 11021 0
-11199 11198 0
11199 -11021 -11198 0
-11200 11024 0
-11200 11199 0
11200 -11024 -11199 0
-11201 11027 0
-11201 11200 0
11201 -11027 -11200 0
-11202 11030 0
-11202 11201 0
11202 -11030 -11201 0
-11203 11033 0
-11203 11202 0
11203 -11033 -11202 0
-11204 11036 0
-11204 11203 0
11204 -11036 -11203 0
-11205 11039 0
-11205 11204 0
11205 -11039 -11204 0
-11206 11042 0
-11206 11205 0
11206 -11042 -11205 0
-11207 11045 0
-11207 11206 0
11207 -11045 -11206 0
-11208 11048 0
-11208 11207 0
11208 -11048 -11207 0
-11209 11051 0
-11209 11208 0
11209 -11051 -11208 0
-11210 11054 0
-11210 11209 0
11210 -11054 -11209 0
-11211 11057 0
-11211 11210 0
11211 -11057 -11210 0
-11212 11060 0
-11212 11211 0
11212 -11060 -11211 0
-11213 11063 0
-11213 11212 0
11213 -11063 -11212 0
-11214 11066 0
-11214 11213 0
11214 -11066 -11213 0
-11215 11069 0
-11215 11214 0
11215 -11069 -11214 0
-11216 11072 0
-11216 11215 0
11216 -11072 -11215 0
-11217 11075 0
-11217 11216 0
11217 -11075 -11216 0
-11218 11078 0
-11218 11217 0
11218 -11078 -11217 0
-11219 11081 0
-11219 11218 0
11219 -11081 -11218 0
-11220 11084 0
-11220 11219 0
11220 -11084 -11219 0
-11221 11087 0
-11221 11220 0
11221 -11087 -11220 0
-11222 11090 0
-11222 11221 0
11222 -11090 -11221 0
-11223 11093 0
-11223 11222 0
11223 -11093 -11222 0
-11224 11096 0
-11224 11223 0
11224 -11096 -11223 0
-11225 11099 0
-11225 11224 0
11225 -11099 -11224 0
-11226 11102 0
-11226 11225 0
11226 -11102 -11225 0
-11227 11105 0
-11227 11226 0
11227 -11105 -11226 0
-11228 11108 0
-11228 11227 0
11228 -11108 -11227 0
-11229 11111 0
-11229 11228 0
11229 -11111 -11228 0
-11230 11114 0
-11230 11229 0
11230 -11114 -11229 0
-11231 11117 0
-11231 11230 0
11231 -11117 -11230 0
-11232 11120 0
-11232 11231 0
11232 -11120 -11231 0
-11233 11123 0
-11233 11232 0
11233 -11123 -11232 0
-11234 11126 0
-11234 11233 0
11234 -11126 -11233 0
-11235 11129 0
-11235 11234 0
11235 -11129 -11234 0
-11236 11132 0
-11236 11235 0
11236 -11132 -11235 0
-11237 11135 0
-11237 11236 0
11237 -11135 -11236 0
-11238 11138 0
-11238 11237 0
11238 -11138 -11237 0
-11239 11141 0
-11239 11238 0
11239 -11141 -11238 0
-11240 11144 0
-11240 11239 0
11240 -11144 -11239 0
-11241 11147 0
-11241 11240 0
11241 -11147 -11240 0
-11242 11150 0
-11242 11241 0
11242 -11150 -11241 0
-11243 11153 0
-11243 11242 0
11243 -11153 -11242 0
-11244 11156 0
-11244 11243 0
11244 -11156 -11243 0
-11245 11159 0
-11245 11244 0
11245 -11159 -11244 0
-11246 11162 0
-11246 11245 0
11246 -11162 -11245 0
-11247 11165 0
-11247 11246 0
11247 -11165 -11246 0
-11248 11168 0
-11248 11247 0
11248 -11168 -11247 0
-11249 11171 0
-11249 11248 0
11249 -11171 -11248 0
-11250 11174 0
-11250 11249 0
11250 -11174 -11249 0
-11251 11177 0
-11251 11250 0
11251 -11177 -11250 0
-11252 11180 0
-11252 11251 0
11252 -11180 -11251 0
-11253 11183 0
-11253 11252 0
11253 -11183 -11252 0
-11254 11186 0
-11254 11253 0
11254 -11186 -11253 0
-11255 11189 0
-11255 11254 0
11255 -11189 -11254 0
-11256 11192 0
-11256 11255 0
11256 -11192 -11255 0
-11257 11195 0
-11257 11256 0
11257 -11195 -11256 0
-11258 -10380 0
-11258 11257 0
11258 10380 -11257 0
-11259 9711 0
-11259 -11258 0
11259 -9711 11258 0
-11260 10316 0
-11260 -11259 0
11260 -10316 11259 0
-11447 -9816 0
-11447 10379 0
11447 9816 -10379 0
-11448 9816 0
-11448 -10379 0
11448 -9816 10379 0
-11449 -11447 0
-11449 -11448 0
11449 11447 11448 0
-11444 -9815 0
-11444 10378 0
11444 9815 -10378 0
-11445 9815 0
-11445 -10378 0
11445 -9815 10378 0
-11446 -11444 0
-11446 -11445 0
11446 11444 11445 0
-11441 -9814 0
-11441 10377 0
11441 9814 -10377 0
-11442 9814 0
-11442 -10377 0
11442 -9814 10377 0
-11443 -11441 0
-11443 -11442 0
11443 11441 11442 0
-11438 -9813 0
-11438 10376 0
11438 9813 -10376 0
-11439 9813 0
-11439 -10376 0
11439 -9813 10376 0
-11440 -11438 0
-11440 -11439 0
11440 11438 11439 0
-11435 -9812 0
-11435 10375 0
11435 9812 -10375 0
-11436 9812 0
-11436 -10375 0
11436 -9812 10375 0
-11437 -11435 0
-11437 -11436 0
11437 11435 11436 0
-11432 -9811 0
-11432 10374 0
11432 9811 -10374 0
-11433 9811 0
-11433 -10374 0
11433 -9811 10374 0
-11434 -11432 0
-11434 -11433 0
11434 11432 11433 0
-11429 -9810 0
-11429 10373 0
11429 9810 -10373 0
-11430 9810 0
-11430 -10373 0
11430 -9810 10373 0
-11431 -11429 0
-11431 -11430 0
11431 11429 11430 0
-11426 -9809 0
-11426 10372 0
11426 9809 -10372 0
-11427 9809 0
-11427 -10372 0
11427 -9809 10372 0
-11428 -11426 0
-11428 -11427 0
11428 11426 11427 0
-11423 -9808 0
-11423 10371 0
11423 9808 -10371 0
-11424 9808 0
-11424 -10371 0
11424 -9808 10371 0
-11425 -11423 0
-11425 -11424 0
11425 11423 11424 0
-11420 -9807 0
-11420 10370 0
11420 9807 -10370 0
-11421 9807 0
-11421 -10370 0
11421 -9807 10370 0
-11422 -11420 0
-11422 -11421 0
11422 11420 11421 0
-11417 -9806 0
-11417 10369 0
11417 9806 -10369 0
-11418 9806 0
-11418 -10369 0
11418 -9806 10369 0
-11419 -11417 0
-11419 -11418 0
11419 11417 11418 0
-11414 -9805 0
-11414 10368 0
11414 9805 -10368 0
-11415 9805 0
-11415 -10368 0
11415 -9805 10368 0
-11416 -11414 0
-11416 -11415 0
11416 11414 11415 0
-11411 -9804 0
-11411 10367 0
11411 9804 -10367 0
-11412 9804 0
-11412 -10367 0
11412 -9804 10367 0
-11413 -11411 0
-11413 -11412 0
11413 11411 11412 0
-11408 -9803 0
-11408 10366 0
11408 9803 -10366 0
-11409 9803 0
-11409 -10366 0
11409 -9803 10366 0
-11410 -11408 0
-11410 -11409 0
11410 11408 11409 0
-11405 -9802 0
-11405 10365 0
11405 9802 -10365 0
-11406 9802 0
-11406 -10365 0
11406 -9802 10365 0
-11407 -11405 0
-11407 -11406 0
11407 11405 11406 0
-11402 -9801 0
-11402 10364 0
11402 9801 -10364 0
-11403 9801 0
-11403 -10364 0
11403 -9801 10364 0
-11404 -11402 0
-11404 -11403 0
11404 11402 11403 0
-11399 -9800 0
-11399 10363 0
11399 9800 -10363 0
-11400 9800 0
-11400 -10363 0
11400 -9800 10363 0
-11401 -11399 0
-11401 -11400 0
11401 11399 11400 0
-11396 -9799 0
-11396 10362 0
11396 9799 -10362 0
-11397 9799 0
-11397 -10362 0
11397 -9799 10362 0
-11398 -11396 0
-11398 -11397 0
11398 11396 11397 0
-11393 -9798 0
-11393 10361 0
11393 9798 -10361 0
-11394 9798 0
-11394 -10361 0
11394 -9798 10361 0
-11395 -11393 0
-11395 -11394 0
11395 11393 11394 0
-11390 -9797 0
-11390 10360 0
11390 9797 -10360 0
-11391 9797 0
-11391 -10360 0
11391 -9797 10360 0
-11392 -11390 0
-11392 -11391 0
11392 11390 11391 0
-11387 -9796 0
-11387 10359 0
11387 9796 -10359 0
-11388 9796 0
-11388 -10359 0
11388 -9796 10359 0
-11389 -11387 0
-11389 -11388 0
11389 11387 11388 0
-11384 -9795 0
-11384 10358 0
11384 9795 -10358 0
-11385 9795 0
-11385 -10358 0
11385 -9795 10358 0
-11386 -11384 0
-11386 -11385 0
11386 11384 11385 0
-11381 -9794 0
-11381 10357 0
11381 9794 -10357 0
-11382 9794 0
-11382 -10357 0
11382 -9794 10357 0
-11383 -11381 0
-11383 -11382 0
11383 11381 11382 0
-11378 -9793 0
-11378 10356 0
11378 9793 -10356 0
-11379 9793 0
-11379 -10356 0
11379 -9793 10356 0
-11380 -11378 0
-11380 -11379 0
11380 11378 11379 0
-11375 -9792 0
-11375 10355 0
11375 9792 -10355 0
-11376 9792 0
-11376 -10355 0
11376 -9792 10355 0
-11377 -11375 0
-11377 -11376 0
11377 11375 11376 0
-11372 -9791 0
-11372 10354 0
11372 9791 -10354 0
-11373 9791 0
-11373 -10354 0
11373 -9791 10354 0
-11374 -11372 0
-11374 -11373 0
11374 11372 11373 0
-11369 -9790 0
-11369 10353 0
11369 9790 -10353 0
-11370 9790 0
-11370 -10353 0
11370 -9790 10353 0
-11371 -11369 0
-11371 -11370 0
11371 11369 11370 0
-11366 -9789 0
-11366 10352 0
11366 9789 -10352 0
-11367 9789 0
-11367 -10352 0
11367 -9789 10352 0
-11368 -11366 0
-11368 -11367 0
11368 11366 11367 0
-11363 -9788 0
-11363 10351 0
11363 9788 -10351 0
-11364 9788 0
-11364 -10351 0
11364 -9788 10351 0
-11365 -11363 0
-11365 -11364 0
11365 11363 11364 0
-11360 -9787 0
-11360 10350 0
11360 9787 -10350 0
-11361 9787 0
-11361 -10350 0
11361 -9787 10350 0
-11362 -11360 0
-11362 -11361 0
11362 11360 11361 0
-11357 -9786 0
-11357 10349 0
11357 9786 -10349 0
-11358 9786 0
-11358 -10349 0
11358 -9786 10349 0
-11359 -11357 0
-11359 -11358 0
11359 11357 11358 0
-11354 -9785 0
-11354 10348 0
11354 9785 -10348 0
-11355 9785 0
-11355 -10348 0
11355 -9785 10348 0
-11356 -11354 0
-11356 -11355 0
11356 11354 11355 0
-11351 -9784 0
-11351 10347 0
11351 9784 -10347 0
-11352 9784 0
-11352 -10347 0
11352 -9784 10347 0
-11353 -11351 0
-11353 -11352 0
11353 11351 11352 0
-11348 -9783 0
-11348 10346 0
11348 9783 -10346 0
-11349 9783 0
-11349 -10346 0
11349 -9783 10346 0
-11350 -11348 0
-11350 -11349 0
11350 11348 11349 0
-11345 -9782 0
-11345 10345 0
11345 9782 -10345 0
-11346 9782 0
-11346 -10345 0
11346 -9782 10345 0
-11347 -11345 0
-11347 -11346 0
11347 11345 11346 0
-11342 -9781 0
-11342 10344 0
11342 9781 -10344 0
-11343 9781 0
-11343 -10344 0
11343 -9781 10344 0
-11344 -11342 0
-11344 -11343 0
11344 11342 11343 0
-11339 -9780 0
-11339 10343 0
11339 9780 -10343 0
-11340 9780 0
-11340 -10343 0
11340 -9780 10343 0
-11341 -11339 0
-11341 -11340 0
11341 11339 11340 0
-11336 -9779 0
-11336 10342 0
11336 9779 -10342 0
-11337 9779 0
-11337 -10342 0
11337 -9779 10342 0
-11338 -11336 0
-11338 -11337 0
11338 11336 11337 0
-11333 -9778 0
-11333 10341 0
11333 9778 -10341 0
-11334 9778 0
-11334 -10341 0
11334 -9778 10341 0
-11335 -11333 0
-11335 -11334 0
11335 11333 11334 0
-11330 -9777 0
-11330 10340 0
11330 9777 -10340 0
-11331 9777 0
-11331 -10340 0
11331 -9777 10340 0
-11332 -11330 0
-11332 -11331 0
11332 11330 11331 0
-11327 -9776 0
-11327 10339 0
11327 9776 -10339 0
-11328 9776 0
-11328 -10339 0
11328 -9776 10339 0
-11329 -11327 0
-11329 -11328 0
11329 11327 11328 0
-11324 -9775 0
-11324 10338 0
11324 9775 -10338 0
-11325 9775 0
-11325 -10338 0
11325 -9775 10338 0
-11326 -11324 0
-11326 -11325 0
11326 11324 11325 0
-11321 -9774 0
-11321 10337 0
11321 9774 -10337 0
-11322 9774 0
-11322 -10337 0
11322 -9774 10337 0
-11323 -11321 0
-11323 -11322 0
11323 11321 11322 0
-11318 -9773 0
-11318 10336 0
11318 9773 -10336 0
-11319 9773 0
-11319 -10336 0
11319 -9773 10336 0
-11320 -11318 0
-11320 -11319 0
11320 11318 11319 0
-11315 -9772 0
-11315 10335 0
11315 9772 -10335 0
-11316 9772 0
-11316 -10335 0
11316 -9772 10335 0
-11317 -11315 0
-11317 -11316 0
11317 11315 11316 0
-11312 -9771 0
-11312 10334 0
11312 9771 -10334 0
-11313 9771 0
-11313 -10334 0
11313 -9771 10334 0
-11314 -11312 0
-11314 -11313 0
11314 11312 11313 0
-11309 -9770 0
-11309 10333 0
11309 9770 -10333 0
-11310 9770 0
-11310 -10333 0
11310 -9770 10333 0
-11311 -11309 0
-11311 -11310 0
11311 11309 11310 0
-11306 -9769 0
-11306 10332 0
11306 9769 -10332 0
-11307 9769 0
-11307 -10332 0
11307 -9769 10332 0
-11308 -11306 0
-11308 -11307 0
11308 11306 11307 0
-11303 -9768 0
-11303 10331 0
11303 9768 -10331 0
-11304 9768 0
-11304 -10331 0
11304 -9768 10331 0
-11305 -11303 0
-11305 -11304 0
11305 11303 11304 0
-11300 -9767 0
-11300 10330 0
11300 9767 -10330 0
-11301 9767 0
-11301 -10330 0
11301 -9767 10330 0
-11302 -11300 0
-11302 -11301 0
11302 11300 11301 0
-11297 -9766 0
-11297 10329 0
11297 9766 -10329 0
-11298 9766 0
-11298 -10329 0
11298 -9766 10329 0
-11299 -11297 0
-11299 -11298 0
11299 11297 11298 0
-11294 -9765 0
-11294 10328 0
11294 9765 -10328 0
-11295 9765 0
-11295 -10328 0
11295 -9765 10328 0
-11296 -11294 0
-11296 -11295 0
11296 11294 11295 0
-11291 -9764 0
-11291 10327 0
11291 9764 -10327 0
-11292 9764 0
-11292 -10327 0
11292 -9764 10327 0
-11293 -11291 0
-11293 -11292 0
11293 11291 11292 0
-11288 -9763 0
-11288 10326 0
11288 9763 -10326 0
-11289 9763 0
-11289 -10326 0
11289 -9763 10326 0
-11290 -11288 0
-11290 -11289 0
11290 11288 11289 0
-11285 -9762 0
-11285 10325 0
11285 9762 -10325 0
-11286 9762 0
-11286 -10325 0
11286 -9762 10325 0
-11287 -11285 0
-11287 -11286 0
11287 11285 11286 0
-11282 -9761 0
-11282 10324 0
11282 9761 -10324 0
-11283 9761 0
-11283 -10324 0
11283 -9761 10324 0
-11284 -11282 0
-11284 -11283 0
11284 11282 11283 0
-11279 -9760 0
-11279 10323 0
11279 9760 -10323 0
-11280 9760 0
-11280 -10323 0
11280 -9760 10323 0
-11281 -11279 0
-11281 -11280 0
11281 11279 11280 0
-11276 -9759 0
-11276 10322 0
11276 9759 -10322 0
-11277 9759 0
-11277 -10322 0
11277 -9759 10322 0
-11278 -11276 0
-11278 -11277 0
11278 11276 11277 0
-11273 -9758 0
-11273 10321 0
11273 9758 -10321 0
-11274 9758 0
-11274 -10321 0
11274 -9758 10321 0
-11275 -11273 0
-11275 -11274 0
11275 11273 11274 0
-11270 -9757 0
-11270 10320 0
11270 9757 -10320 0
-11271 9757 0
-11271 -10320 0
11271 -9757 10320 0
-11272 -11270 0
-11272 -11271 0
11272 11270 11271 0
-11267 -9756 0
-11267 10319 0
11267 9756 -10319 0
-11268 9756 0
-11268 -10319 0
11268 -9756 10319 0
-11269 -11267 0
-11269 -11268 0
11269 11267 11268 0
-11261 -9754 0
-11261 10317 0
11261 9754 -10317 0
-11262 9754 0
-11262 -10317 0
11262 -9754 10317 0
-11263 -11261 0
-11263 -11262 0
11263 11261 11262 0
-11264 -9755 0
-11264 10318 0
11264 9755 -10318 0
-11265 9755 0
-11265 -10318 0
11265 -9755 10318 0
-11266 -11264 0
-11266 -11265 0
11266 11264 11265 0
-11450 11263 0
-11450 11266 0
11450 -11263 -11266 0
-11451 11269 0
-11451 11450 0
11451 -11269 -11450 0
-11452 11272 0
-11452 11451 0
11452 -11272 -11451 0
-11453 11275 0
-11453 11452 0
11453 -11275 -11452 0
-11454 11278 0
-11454 11453 0
11454 -11278 -11453 0
-11455 11281 0
-11455 11454 0
11455 -11281 -11454 0
-11456 11284 0
-11456 11455 0
11456 -11284 -11455 0
-11457 11287 0
-11457 11456 0
11457 -11287 -11456 0
-11458 11290 0
-11458 11457 0
11458 -11290 -11457 0
-11459 11293 0
-11459 11458 0
11459 -11293 -11458 0
-11460 11296 0
-11460 11459 0
11460 -11296 -11459 0
-11461 11299 0
-11461 11460 0
11461 -11299 -11460 0
-11462 11302 0
-11462 11461 0
11462 -11302 -11461 0
-11463 11305 0
-11463 11462 0
11463 -11305 -11462 0
-11464 11308 0
-11464 11463 0
11464 -11308 -11463 0
-11465 11311 0
-11465 11464 0
11465 -11311 -11464 0
-11466 11314 0
-11466 11465 0
11466 -11314 -11465 0
-11467 11317 0
-11467 11466 0
11467 -11317 -11466 0
-11468 11320 0
-11468 11467 0
11468 -11320 -11467 0
-11469 11323 0
-11469 11468 0
11469 -11323 -11468 0
-11470 11326 0
-11470 11469 0
11470 -11326 -11469 0
-11471 11329 0
-11471 11470 0
11471 -11329 -11470 0
-11472 11332 0
-11472 11471 0
11472 -11332 -11471 0
-11473 11335 0
-11473 11472 0
11473 -11335 -11472 0
-11474 11338 0
-11474 11473 0
11474 -11338 -11473 0
-11475 11341 0
-11475 11474 0
11475 -11341 -11474 0
-11476 11344 0
-11476 11475 0
11476 -11344 -11475 0
-11477 11347 0
-11477 11476 0
11477 -11347 -11476 0
-11478 11350 0
-11478 11477 0
11478 -11350 -11477 0
-11479 11353 0
-11479 11478 0
11479 -11353 -11478 0
-11480 11356 0
-11480 11479 0
11480 -11356 -11479 0
-11481 11359 0
-11481 11480 0
11481 -11359 -11480 0
-11482 11362 0
-11482 11481 0
11482 -11362 -11481 0
-11483 11365 0
-11483 11482 0
11483 -11365 -11482 0
-11484 11368 0
-11484 11483 0
11484 -11368 -11483 0
-11485 11371 0
-11485 11484 0
11485 -11371 -11484 0
-11486 11374 0
-11486 11485 0
11486 -11374 -11485 0
-11487 11377 0
-11487 11486 0
11487 -11377 -11486 0
-11488 11380 0
-11488 11487 0
11488 -11380 -11487 0
-11489 11383 0
-11489 11488 0
11489 -11383 -11488 0
-11490 11386 0
-11490 11489 0
11490 -11386 -11489 0
-11491 11389 0
-11491 11490 0
11491 -11389 -11490 0
-11492 11392 0
-11492 11491 0
11492 -11392 -11491 0
-11493 11395 0
-11493 11492 0
11493 -11395 -11492 0
-11494 11398 0
-11494 11493 0
11494 -11398 -11493 0
-11495 11401 0
-11495 11494 0
11495 -11401 -11494 0
-11496 11404 0
-11496 11495 0
11496 -11404 -11495 0
-11497 11407 0
-11497 11496 0
11497 -11407 -11496 0
-11498 11410 0
-11498 11497 0
11498 -11410 -11497 0
-11499 11413 0
-11499 11498 0
11499 -11413 -11498 0
-11500 11416 0
-11500 11499 0
11500 -11416 -11499 0
-11501 11419 0
-11501 11500 0
11501 -11419 -11500 0
-11502 11422 0
-11502 11501 0
11502 -11422 -11501 0
-11503 11425 0
-11503 11502 0
11503 -11425 -11502 0
-11504 11428 0
-11504 11503 0
11504 -11428 -11503 0
-11505 11431 0
-11505 11504 0
11505 -11431 -11504 0
-11506 11434 0
-11506 11505 0
11506 -11434 -11505 0
-11507 11437 0
-11507 11506 0
11507 -11437 -11506 0
-11508 11440 0
-11508 11507 0
11508 -11440 -11507 0
-11509 11443 0
-11509 11508 0
11509 -11443 -11508 0
-11510 11446 0
-11510 11509 0
11510 -11446 -11509 0
-11511 11449 0
-11511 11510 0
11511 -11449 -11510 0
-11512 -10380 0
-11512 11511 0
11512 10380 -11511 0
-11513 -9711 0
-11513 -11512 0
11513 9711 11512 0
-11514 11260 0
-11514 -11513 0
11514 -11260 11513 0
11515 -17247 0
-11515 17247 0
-11516 -9008 0
-11516 11515 0
11516 9008 -11515 0
-11517 9008 0
-11517 -11515 0
11517 -9008 11515 0
-11518 -11516 0
-11518 -11517 0
11518 11516 11517 0
-11519 7896 0
-11519 -11518 0
11519 -7896 11518 0
-11520 11514 0
-11520 -11519 0
11520 -11514 11519 0
-11521 -7940 0
-11521 11515 0
11521 7940 -11515 0
-11522 7940 0
-11522 -11515 0
11522 -7940 11515 0
-11523 -11521 0
-11523 -11522 0
11523 11521 11522 0
-11524 -7896 0
-11524 -11523 0
11524 7896 11523 0
-11525 11520 0
-11525 -11524 0
11525 -11520 11524 0
11526 -17248 0
-11526 17248 0
-11527 -10820 0
-11527 11526 0
11527 10820 -11526 0
-11528 10820 0
-11528 -11526 0
11528 -10820 11526 0
-11529 -11527 0
-11529 -11528 0
11529 11527 11528 0
-11530 9711 0
-11530 -11529 0
11530 -9711 11529 0
-11531 11525 0
-11531 -11530 0
11531 -11525 11530 0
-11532 -11515 0
-11532 11526 0
11532 11515 -11526 0
-11533 11515 0
-11533 -11526 0
11533 -11515 11526 0
-11534 -11532 0
-11534 -11533 0
11534 11532 11533 0
-11535 -9711 0
-11535 -11534 0
11535 9711 11534 0
-11536 11531 0
-11536 -11535 0
11536 -11531 11535 0
11546 -17258 0
-11546 17258 0
11545 -17257 0
-11545 17257 0
11544 -17256 0
-11544 17256 0
11543 -17255 0
-11543 17255 0
11542 -17254 0
-11542 17254 0
11541 -17253 0
-11541 17253 0
11540 -17252 0
-11540 17252 0
11539 -17251 0
-11539 17251 0
11537 -17249 0
-11537 17249 0
11538 -17250 0
-11538 17250 0
-11547 11537 0
-11547 -11538 0
11547 -11537 11538 0
-11548 -11539 0
-11548 11547 0
11548 11539 -11547 0
-11549 -11540 0
-11549 11548 0
11549 11540 -11548 0
-11550 -11541 0
-11550 11549 0
11550 11541 -11549 0
-11551 -11542 0
-11551 11550 0
11551 11542 -11550 0
-11552 -11543 0
-11552 11551 0
11552 11543 -11551 0
-11553 -11544 0
-11553 11552 0
11553 11544 -11552 0
-11554 -11545 0
-11554 11553 0
11554 11545 -11553 0
-11555 -11546 0
-11555 11554 0
11555 11546 -11554 0
-11556 11526 0
-11556 -11555 0
11556 -11526 11555 0
-11557 11536 0
-11557 -11556 0
11557 -11536 11556 0
-11558 -11537 0
-11558 -11538 0
11558 11537 11538 0
-11559 -11539 0
-11559 11558 0
11559 11539 -11558 0
-11560 -11540 0
-11560 11559 0
11560 11540 -11559 0
-11561 -11541 0
-11561 11560 0
11561 11541 -11560 0
-11562 -11542 0
-11562 11561 0
11562 11542 -11561 0
-11563 -11543 0
-11563 11562 0
11563 11543 -11562 0
-11564 -11544 0
-11564 11563 0
11564 11544 -11563 0
-11565 -11545 0
-11565 11564 0
11565 11545 -11564 0
-11566 -11546 0
-11566 11565 0
11566 11546 -11565 0
-11567 -11526 0
-11567 -11566 0
11567 11526 11566 0
-11568 11557 0
-11568 -11567 0
11568 -11557 11567 0
11631 -17321 0
-11631 17321 0
11630 -17320 0
-11630 17320 0
-11815 -11006 0
-11815 11630 0
11815 11006 -11630 0
-11816 11006 0
-11816 -11630 0
11816 -11006 11630 0
-11817 -11815 0
-11817 -11816 0
11817 11815 11816 0
11629 -17319 0
-11629 17319 0
-11812 -11003 0
-11812 11629 0
11812 11003 -11629 0
-11813 11003 0
-11813 -11629 0
11813 -11003 11629 0
-11814 -11812 0
-11814 -11813 0
11814 11812 11813 0
11628 -17318 0
-11628 17318 0
-11809 -11000 0
-11809 11628 0
11809 11000 -11628 0
-11810 11000 0
-11810 -11628 0
11810 -11000 11628 0
-11811 -11809 0
-11811 -11810 0
11811 11809 11810 0
11627 -17317 0
-11627 17317 0
-11806 -10997 0
-11806 11627 0
11806 10997 -11627 0
-11807 10997 0
-11807 -11627 0
11807 -10997 11627 0
-11808 -11806 0
-11808 -11807 0
11808 11806 11807 0
11626 -17316 0
-11626 17316 0
-11803 -10994 0
-11803 11626 0
11803 10994 -11626 0
-11804 10994 0
-11804 -11626 0
11804 -10994 11626 0
-11805 -11803 0
-11805 -11804 0
11805 11803 11804 0
11625 -17315 0
-11625 17315 0
-11800 -10991 0
-11800 11625 0
11800 10991 -11625 0
-11801 10991 0
-11801 -11625 0
11801 -10991 11625 0
-11802 -11800 0
-11802 -11801 0
11802 11800 11801 0
11624 -17314 0
-11624 17314 0
-11797 -10988 0
-11797 11624 0
11797 10988 -11624 0
-11798 10988 0
-11798 -11624 0
11798 -10988 11624 0
-11799 -11797 0
-11799 -11798 0
11799 11797 11798 0
11623 -17313 0
-11623 17313 0
-11794 -10985 0
-11794 11623 0
11794 10985 -11623 0
-11795 10985 0
-11795 -11623 0
11795 -10985 11623 0
-11796 -11794 0
-11796 -11795 0
11796 11794 11795 0
11622 -17312 0
-11622 17312 0
-11791 -10982 0
-11791 11622 0
11791 10982 -11622 0
-11792 10982 0
-11792 -11622 0
11792 -10982 11622 0
-11793 -11791 0
-11793 -11792 0
11793 11791 11792 0
11621 -17311 0
-11621 17311 0
-11788 -10979 0
-11788 11621 0
11788 10979 -11621 0
-11789 10979 0
-11789 -11621 0
11789 -10979 11621 0
-11790 -11788 0
-11790 -11789 0
11790 11788 11789 0
11620 -17310 0
-11620 17310 0
-11785 -10976 0
-11785 11620 0
11785 10976 -11620 0
-11786 10976 0
-11786 -11620 0
11786 -10976 11620 0
-11787 -11785 0
-11787 -11786 0
11787 11785 11786 0
11619 -17309 0
-11619 17309 0
-11782 -10973 0
-11782 11619 0
11782 10973 -11619 0
-11783 10973 0
-11783 -11619 0
11783 -10973 11619 0
-11784 -11782 0
-11784 -11783 0
11784 11782 11783 0
11618 -17308 0
-11618 17308 0
-11779 -10970 0
-11779 11618 0
11779 10970 -11618 0
-11780 10970 0
-11780 -11618 0
11780 -10970 11618 0
-11781 -11779 0
-11781 -11780 0
11781 11779 11780 0
11617 -17307 0
-11617 17307 0
-11776 -10967 0
-11776 11617 0
11776 10967 -11617 0
-11777 10967 0
-11777 -11617 0
11777 -10967 11617 0
-11778 -11776 0
-11778 -11777 0
11778 11776 11777 0
11616 -17306 0
-11616 17306 0
-11773 -10964 0
-11773 11616 0
11773 10964 -11616 0
-11774 10964 0
-11774 -11616 0
11774 -10964 11616 0
-11775 -11773 0
-11775 -11774 0
11775 11773 11774 0
11615 -17305 0
-11615 17305 0
-11770 -10961 0
-11770 11615 0
11770 10961 -11615 0
-11771 10961 0
-11771 -11615 0
11771 -10961 11615 0
-11772 -11770 0
-11772 -11771 0
11772 11770 11771 0
11614 -17304 0
-11614 17304 0
-11767 -10958 0
-11767 11614 0
11767 10958 -11614 0
-11768 10958 0
-11768 -11614 0
11768 -10958 11614 0
-11769 -11767 0
-11769 -11768 0
11769 11767 11768 0
11613 -17303 0
-11613 17303 0
-11764 -10955 0
-11764 11613 0
11764 10955 -11613 0
-11765 10955 0
-11765 -11613 0
11765 -10955 11613 0
-11766 -11764 0
-11766 -11765 0
11766 11764 11765 0
11612 -17302 0
-11612 17302 0
-11761 -10952 0
-11761 11612 0
11761 10952 -11612 0
-11762 10952 0
-11762 -11612 0
11762 -10952 11612 0
-11763 -11761 0
-11763 -11762 0
11763 11761 11762 0
11611 -17301 0
-11611 17301 0
-11758 -10949 0
-11758 11611 0
11758 10949 -11611 0
-11759 10949 0
-11759 -11611 0
11759 -10949 11611 0
-11760 -11758 0
-11760 -11759 0
11760 11758 11759 0
11610 -17300 0
-11610 17300 0
-11755 -10946 0
-11755 11610 0
11755 10946 -11610 0
-11756 10946 0
-11756 -11610 0
11756 -10946 11610 0
-11757 -11755 0
-11757 -11756 0
11757 11755 11756 0
11609 -17299 0
-11609 17299 0
-11752 -10943 0
-11752 11609 0
11752 10943 -11609 0
-11753 10943 0
-11753 -11609 0
11753 -10943 11609 0
-11754 -11752 0
-11754 -11753 0
11754 11752 11753 0
11608 -17298 0
-11608 17298 0
-11749 -10940 0
-11749 11608 0
11749 10940 -11608 0
-11750 10940 0
-11750 -11608 0
11750 -10940 11608 0
-11751 -11749 0
-11751 -11750 0
11751 11749 11750 0
11607 -17297 0
-11607 17297 0
-11746 -10937 0
-11746 11607 0
11746 10937 -11607 0
-11747 10937 0
-11747 -11607 0
11747 -10937 11607 0
-11748 -11746 0
-11748 -11747 0
11748 11746 11747 0
11606 -17296 0
-11606 17296 0
-11743 -10934 0
-11743 11606 0
11743 10934 -11606 0
-11744 10934 0
-11744 -11606 0
11744 -10934 11606 0
-11745 -11743 0
-11745 -11744 0
11745 11743 11744 0
11605 -17295 0
-11605 17295 0
-11740 -10931 0
-11740 11605 0
11740 10931 -11605 0
-11741 10931 0
-11741 -11605 0
11741 -10931 11605 0
-11742 -11740 0
-11742 -11741 0
11742 11740 11741 0
11604 -17294 0
-11604 17294 0
-11737 -10928 0
-11737 11604 0
11737 10928 -11604 0
-11738 10928 0
-11738 -11604 0
11738 -10928 11604 0
-11739 -11737 0
-11739 -11738 0
11739 11737 11738 0
11603 -17293 0
-11603 17293 0
-11734 -10925 0
-11734 11603 0
11734 10925 -11603 0
-11735 10925 0
-11735 -11603 0
11735 -10925 11603 0
-11736 -11734 0
-11736 -11735 0
11736 11734 11735 0
11602 -17292 0
-11602 17292 0
-11731 -10922 0
-11731 11602 0
11731 10922 -11602 0
-11732 10922 0
-11732 -11602 0
11732 -10922 11602 0
-11733 -11731 0
-11733 -11732 0
11733 11731 11732 0
11601 -17291 0
-11601 17291 0
-11728 -10919 0
-11728 11601 0
11728 10919 -11601 0
-11729 10919 0
-11729 -11601 0
11729 -10919 11601 0
-11730 -11728 0
-11730 -11729 0
11730 11728 11729 0
11600 -17290 0
-11600 17290 0
-11725 -10916 0
-11725 11600 0
11725 10916 -11600 0
-11726 10916 0
-11726 -11600 0
11726 -10916 11600 0
-11727 -11725 0
-11727 -11726 0
11727 11725 11726 0
11599 -17289 0
-11599 17289 0
-11722 -10913 0
-11722 11599 0
11722 10913 -11599 0
-11723 10913 0
-11723 -11599 0
11723 -10913 11599 0
-11724 -11722 0
-11724 -11723 0
11724 11722 11723 0
11598 -17288 0
-11598 17288 0
-11719 -10910 0
-11719 11598 0
11719 10910 -11598 0
-11720 10910 0
-11720 -11598 0
11720 -10910 11598 0
-11721 -11719 0
-11721 -11720 0
11721 11719 11720 0
11597 -17287 0
-11597 17287 0
-11716 -10907 0
-11716 11597 0
11716 10907 -11597 0
-11717 10907 0
-11717 -11597 0
11717 -10907 11597 0
-11718 -11716 0
-11718 -11717 0
11718 11716 11717 0
11596 -17286 0
-11596 17286 0
-11713 -10904 0
-11713 11596 0
11713 10904 -11596 0
-11714 10904 0
-11714 -11596 0
11714 -10904 11596 0
-11715 -11713 0
-11715 -11714 0
11715 11713 11714 0
11595 -17285 0
-11595 17285 0
-11710 -10901 0
-11710 11595 0
11710 10901 -11595 0
-11711 10901 0
-11711 -11595 0
11711 -10901 11595 0
-11712 -11710 0
-11712 -11711 0
11712 11710 11711 0
11594 -17284 0
-11594 17284 0
-11707 -10898 0
-11707 11594 0
11707 10898 -11594 0
-11708 10898 0
-11708 -11594 0
11708 -10898 11594 0
-11709 -11707 0
-11709 -11708 0
11709 11707 11708 0
11593 -17283 0
-11593 17283 0
-11704 -10895 0
-11704 11593 0
11704 10895 -11593 0
-11705 10895 0
-11705 -11593 0
11705 -10895 11593 0
-11706 -11704 0
-11706 -11705 0
11706 11704 11705 0
11592 -17282 0
-11592 17282 0
-11701 -10892 0
-11701 11592 0
11701 10892 -11592 0
-11702 10892 0
-11702 -11592 0
11702 -10892 11592 0
-11703 -11701 0
-11703 -11702 0
11703 11701 11702 0
11591 -17281 0
-11591 17281 0
-11698 -10889 0
-11698 11591 0
11698 10889 -11591 0
-11699 10889 0
-11699 -11591 0
11699 -10889 11591 0
-11700 -11698 0
-11700 -11699 0
11700 11698 11699 0
11590 -17280 0
-11590 17280 0
-11695 -10886 0
-11695 11590 0
11695 10886 -11590 0
-11696 10886 0
-11696 -11590 0
11696 -10886 11590 0
-11697 -11695 0
-11697 -11696 0
11697 11695 11696 0
11589 -17279 0
-11589 17279 0
-11692 -10883 0
-11692 11589 0
11692 10883 -11589 0
-11693 10883 0
-11693 -11589 0
11693 -10883 11589 0
-11694 -11692 0
-11694 -11693 0
11694 11692 11693 0
11588 -17278 0
-11588 17278 0
-11689 -10880 0
-11689 11588 0
11689 10880 -11588 0
-11690 10880 0
-11690 -11588 0
11690 -10880 11588 0
-11691 -11689 0
-11691 -11690 0
11691 11689 11690 0
11587 -17277 0
-11587 17277 0
-11686 -10877 0
-11686 11587 0
11686 10877 -11587 0
-11687 10877 0
-11687 -11587 0
11687 -10877 11587 0
-11688 -11686 0
-11688 -11687 0
11688 11686 11687 0
11586 -17276 0
-11586 17276 0
-11683 -10874 0
-11683 11586 0
11683 10874 -11586 0
-11684 10874 0
-11684 -11586 0
11684 -10874 11586 0
-11685 -11683 0
-11685 -11684 0
11685 11683 11684 0
11585 -17275 0
-11585 17275 0
-11680 -10871 0
-11680 11585 0
11680 10871 -11585 0
-11681 10871 0
-11681 -11585 0
11681 -10871 11585 0
-11682 -11680 0
-11682 -11681 0
11682 11680 11681 0
11584 -17274 0
-11584 17274 0
-11677 -10868 0
-11677 11584 0
11677 10868 -11584 0
-11678 10868 0
-11678 -11584 0
11678 -10868 11584 0
-11679 -11677 0
-11679 -11678 0
11679 11677 11678 0
11583 -17273 0
-11583 17273 0
-11674 -10865 0
-11674 11583 0
11674 10865 -11583 0
-11675 10865 0
-11675 -11583 0
11675 -10865 11583 0
-11676 -11674 0
-11676 -11675 0
11676 11674 11675 0
11582 -17272 0
-11582 17272 0
-11671 -10862 0
-11671 11582 0
11671 10862 -11582 0
-11672 10862 0
-11672 -11582 0
11672 -10862 11582 0
-11673 -11671 0
-11673 -11672 0
11673 11671 11672 0
11581 -17271 0
-11581 17271 0
-11668 -10859 0
-11668 11581 0
11668 10859 -11581 0
-11669 10859 0
-11669 -11581 0
11669 -10859 11581 0
-11670 -11668 0
-11670 -11669 0
11670 11668 11669 0
11580 -17270 0
-11580 17270 0
-11665 -10856 0
-11665 11580 0
11665 10856 -11580 0
-11666 10856 0
-11666 -11580 0
11666 -10856 11580 0
-11667 -11665 0
-11667 -11666 0
11667 11665 11666 0
11579 -17269 0
-11579 17269 0
-11662 -10853 0
-11662 11579 0
11662 10853 -11579 0
-11663 10853 0
-11663 -11579 0
11663 -10853 11579 0
-11664 -11662 0
-11664 -11663 0
11664 11662 11663 0
11578 -17268 0
-11578 17268 0
-11659 -10850 0
-11659 11578 0
11659 10850 -11578 0
-11660 10850 0
-11660 -11578 0
11660 -10850 11578 0
-11661 -11659 0
-11661 -11660 0
11661 11659 11660 0
11577 -17267 0
-11577 17267 0
-11656 -10847 0
-11656 11577 0
11656 10847 -11577 0
-11657 10847 0
-11657 -11577 0
11657 -10847 11577 0
-11658 -11656 0
-11658 -11657 0
11658 11656 11657 0
11576 -17266 0
-11576 17266 0
-11653 -10844 0
-11653 11576 0
11653 10844 -11576 0
-11654 10844 0
-11654 -11576 0
11654 -10844 11576 0
-11655 -11653 0
-11655 -11654 0
11655 11653 11654 0
11575 -17265 0
-11575 17265 0
-11650 -10841 0
-11650 11575 0
11650 10841 -11575 0
-11651 10841 0
-11651 -11575 0
11651 -10841 11575 0
-11652 -11650 0
-11652 -11651 0
11652 11650 11651 0
11574 -17264 0
-11574 17264 0
-11647 -10838 0
-11647 11574 0
11647 10838 -11574 0
-11648 10838 0
-11648 -11574 0
11648 -10838 11574 0
-11649 -11647 0
-11649 -11648 0
11649 11647 11648 0
11573 -17263 0
-11573 17263 0
-11644 -10835 0
-11644 11573 0
11644 10835 -11573 0
-11645 10835 0
-11645 -11573 0
11645 -10835 11573 0
-11646 -11644 0
-11646 -11645 0
11646 11644 11645 0
11572 -17262 0
-11572 17262 0
-11641 -10832 0
-11641 11572 0
11641 10832 -11572 0
-11642 10832 0
-11642 -11572 0
11642 -10832 11572 0
-11643 -11641 0
-11643 -11642 0
11643 11641 11642 0
11571 -17261 0
-11571 17261 0
-11638 -10829 0
-11638 11571 0
11638 10829 -11571 0
-11639 10829 0
-11639 -11571 0
11639 -10829 11571 0
-11640 -11638 0
-11640 -11639 0
11640 11638 11639 0
11569 -17259 0
-11569 17259 0
-11632 -10823 0
-11632 11569 0
11632 10823 -11569 0
-11633 10823 0
-11633 -11569 0
11633 -10823 11569 0
-11634 -11632 0
-11634 -11633 0
11634 11632 11633 0
11570 -17260 0
-11570 17260 0
-11635 -10826 0
-11635 11570 0
11635 10826 -11570 0
-11636 10826 0
-11636 -11570 0
11636 -10826 11570 0
-11637 -11635 0
-11637 -11636 0
11637 11635 11636 0
-11818 11634 0
-11818 11637 0
11818 -11634 -11637 0
-11819 11640 0
-11819 11818 0
11819 -11640 -11818 0
-11820 11643 0
-11820 11819 0
11820 -11643 -11819 0
-11821 11646 0
-11821 11820 0
11821 -11646 -11820 0
-11822 11649 0
-11822 11821 0
11822 -11649 -11821 0
-11823 11652 0
-11823 11822 0
11823 -11652 -11822 0
-11824 11655 0
-11824 11823 0
11824 -11655 -11823 0
-11825 11658 0
-11825 11824 0
11825 -11658 -11824 0
-11826 11661 0
-11826 11825 0
11826 -11661 -11825 0
-11827 11664 0
-11827 11826 0
11827 -11664 -11826 0
-11828 11667 0
-11828 11827 0
11828 -11667 -11827 0
-11829 11670 0
-11829 11828 0
11829 -11670 -11828 0
-11830 11673 0
-11830 11829 0
11830 -11673 -11829 0
-11831 11676 0
-11831 11830 0
11831 -11676 -11830 0
-11832 11679 0
-11832 11831 0
11832 -11679 -11831 0
-11833 11682 0
-11833 11832 0
11833 -11682 -11832 0
-11834 11685 0
-11834 11833 0
11834 -11685 -11833 0
-11835 11688 0
-11835 11834 0
11835 -11688 -11834 0
-11836 11691 0
-11836 11835 0
11836 -11691 -11835 0
-11837 11694 0
-11837 11836 0
11837 -11694 -11836 0
-11838 11697 0
-11838 11837 0
11838 -11697 -11837 0
-11839 11700 0
-11839 11838 0
11839 -11700 -11838 0
-11840 11703 0
-11840 11839 0
11840 -11703 -11839 0
-11841 11706 0
-11841 11840 0
11841 -11706 -11840 0
-11842 11709 0
-11842 11841 0
11842 -11709 -11841 0
-11843 11712 0
-11843 11842 0
11843 -11712 -11842 0
-11844 11715 0
-11844 11843 0
11844 -11715 -11843 0
-11845 11718 0
-11845 11844 0
11845 -11718 -11844 0
-11846 11721 0
-11846 11845 0
11846 -11721 -11845 0
-11847 11724 0
-11847 11846 0
11847 -11724 -11846 0
-11848 11727 0
-11848 11847 0
11848 -11727 -11847 0
-11849 11730 0
-11849 11848 0
11849 -11730 -11848 0
-11850 11733 0
-11850 11849 0
11850 -11733 -11849 0
-11851 11736 0
-11851 11850 0
11851 -11736 -11850 0
-11852 11739 0
-11852 11851 0
11852 -11739 -11851 0
-11853 11742 0
-11853 11852 0
11853 -11742 -11852 0
-11854 11745 0
-11854 11853 0
11854 -11745 -11853 0
-11855 11748 0
-11855 11854 0
11855 -11748 -11854 0
-11856 11751 0
-11856 11855 0
11856 -11751 -11855 0
-11857 11754 0
-11857 11856 0
11857 -11754 -11856 0
-11858 11757 0
-11858 11857 0
11858 -11757 -11857 0
-11859 11760 0
-11859 11858 0
11859 -11760 -11858 0
-11860 11763 0
-11860 11859 0
11860 -11763 -11859 0
-11861 11766 0
-11861 11860 0
11861 -11766 -11860 0
-11862 11769 0
-11862 11861 0
11862 -11769 -11861 0
-11863 11772 0
-11863 11862 0
11863 -11772 -11862 0
-11864 11775 0
-11864 11863 0
11864 -11775 -11863 0
-11865 11778 0
-11865 11864 0
11865 -11778 -11864 0
-11866 11781 0
-11866 11865 0
11866 -11781 -11865 0
-11867 11784 0
-11867 11866 0
11867 -11784 -11866 0
-11868 11787 0
-11868 11867 0
11868 -11787 -11867 0
-11869 11790 0
-11869 11868 0
11869 -11790 -11868 0
-11870 11793 0
-11870 11869 0
11870 -11793 -11869 0
-11871 11796 0
-11871 11870 0
11871 -11796 -11870 0
-11872 11799 0
-11872 11871 0
11872 -11799 -11871 0
-11873 11802 0
-11873 11872 0
11873 -11802 -11872 0
-11874 11805 0
-11874 11873 0
11874 -11805 -11873 0
-11875 11808 0
-11875 11874 0
11875 -11808 -11874 0
-11876 11811 0
-11876 11875 0
11876 -11811 -11875 0
-11877 11814 0
-11877 11876 0
11877 -11814 -11876 0
-11878 11817 0
-11878 11877 0
11878 -11817 -11877 0
-11879 -11631 0
-11879 11878 0
11879 11631 -11878 0
-11880 9711 0
-11880 -11879 0
11880 -9711 11879 0
-11881 11568 0
-11881 -11880 0
11881 -11568 11880 0
-12065 -9816 0
-12065 11630 0
12065 9816 -11630 0
-12066 9816 0
-12066 -11630 0
12066 -9816 11630 0
-12067 -12065 0
-12067 -12066 0
12067 12065 12066 0
-12062 -9815 0
-12062 11629 0
12062 9815 -11629 0
-12063 9815 0
-12063 -11629 0
12063 -9815 11629 0
-12064 -12062 0
-12064 -12063 0
12064 12062 12063 0
-12059 -9814 0
-12059 11628 0
12059 9814 -11628 0
-12060 9814 0
-12060 -11628 0
12060 -9814 11628 0
-12061 -12059 0
-12061 -12060 0
12061 12059 12060 0
-12056 -9813 0
-12056 11627 0
12056 9813 -11627 0
-12057 9813 0
-12057 -11627 0
12057 -9813 11627 0
-12058 -12056 0
-12058 -12057 0
12058 12056 12057 0
-12053 -9812 0
-12053 11626 0
12053 9812 -11626 0
-12054 9812 0
-12054 -11626 0
12054 -9812 11626 0
-12055 -12053 0
-12055 -12054 0
12055 12053 12054 0
-12050 -9811 0
-12050 11625 0
12050 9811 -11625 0
-12051 9811 0
-12051 -11625 0
12051 -9811 11625 0
-12052 -12050 0
-12052 -12051 0
12052 12050 12051 0
-12047 -9810 0
-12047 11624 0
12047 9810 -11624 0
-12048 9810 0
-12048 -11624 0
12048 -9810 11624 0
-12049 -12047 0
-12049 -12048 0
12049 12047 12048 0
-12044 -9809 0
-12044 11623 0
12044 9809 -11623 0
-12045 9809 0
-12045 -11623 0
12045 -9809 11623 0
-12046 -12044 0
-12046 -12045 0
12046 12044 12045 0
-12041 -9808 0
-12041 11622 0
12041 9808 -11622 0
-12042 9808 0
-12042 -11622 0
12042 -9808 11622 0
-12043 -12041 0
-12043 -12042 0
12043 12041 12042 0
-12038 -9807 0
-12038 11621 0
12038 9807 -11621 0
-12039 9807 0
-12039 -11621 0
12039 -9807 11621 0
-12040 -12038 0
-12040 -12039 0
12040 12038 12039 0
-12035 -9806 0
-12035 11620 0
12035 9806 -11620 0
-12036 9806 0
-12036 -11620 0
12036 -9806 11620 0
-12037 -12035 0
-12037 -12036 0
12037 12035 12036 0
-12032 -9805 0
-12032 11619 0
12032 9805 -11619 0
-12033 9805 0
-12033 -11619 0
12033 -9805 11619 0
-12034 -12032 0
-12034 -12033 0
12034 12032 12033 0
-12029 -9804 0
-12029 11618 0
12029 9804 -11618 0
-12030 9804 0
-12030 -11618 0
12030 -9804 11618 0
-12031 -12029 0
-12031 -12030 0
12031 12029 12030 0
-12026 -9803 0
-12026 11617 0
12026 9803 -11617 0
-12027 9803 0
-12027 -11617 0
12027 -9803 11617 0
-12028 -12026 0
-12028 -12027 0
12028 12026 12027 0
-12023 -9802 0
-12023 11616 0
12023 9802 -11616 0
-12024 9802 0
-12024 -11616 0
12024 -9802 11616 0
-12025 -12023 0
-12025 -12024 0
12025 12023 12024 0
-12020 -9801 0
-12020 11615 0
12020 9801 -11615 0
-12021 9801 0
-12021 -11615 0
12021 -9801 11615 0
-12022 -12020 0
-12022 -12021 0
12022 12020 12021 0
-12017 -9800 0
-12017 11614 0
12017 9800 -11614 0
-12018 9800 0
-12018 -11614 0
12018 -9800 11614 0
-12019 -12017 0
-12019 -12018 0
12019 12017 12018 0
-12014 -9799 0
-12014 11613 0
12014 9799 -11613 0
-12015 9799 0
-12015 -11613 0
12015 -9799 11613 0
-12016 -12014 0
-12016 -12015 0
12016 12014 12015 0
-12011 -9798 0
-12011 11612 0
12011 9798 -11612 0
-12012 9798 0
-12012 -11612 0
12012 -9798 11612 0
-12013 -12011 0
-12013 -12012 0
12013 12011 12012 0
-12008 -9797 0
-12008 11611 0
12008 9797 -11611 0
-12009 9797 0
-12009 -11611 0
12009 -9797 11611 0
-12010 -12008 0
-12010 -12009 0
12010 12008 12009 0
-12005 -9796 0
-12005 11610 0
12005 9796 -11610 0
-12006 9796 0
-12006 -11610 0
12006 -9796 11610 0
-12007 -12005 0
-12007 -12006 0
12007 12005 12006 0
-12002 -9795 0
-12002 11609 0
12002 9795 -11609 0
-12003 9795 0
-12003 -11609 0
12003 -9795 11609 0
-12004 -12002 0
-12004 -12003 0
12004 12002 12003 0
-11999 -9794 0
-11999 11608 0
11999 9794 -11608 0
-12000 9794 0
-12000 -11608 0
12000 -9794 11608 0
-12001 -11999 0
-12001 -12000 0
12001 11999 12000 0
-11996 -9793 0
-11996 11607 0
11996 9793 -11607 0
-11997 9793 0
-11997 -11607 0
11997 -9793 11607 0
-11998 -11996 0
-11998 -11997 0
11998 11996 11997 0
-11993 -9792 0
-11993 11606 0
11993 9792 -11606 0
-11994 9792 0
-11994 -11606 0
11994 -9792 11606 0
-11995 -11993 0
-11995 -11994 0
11995 11993 11994 0
-11990 -9791 0
-11990 11605 0
11990 9791 -11605 0
-11991 9791 0
-11991 -11605 0
11991 -9791 11605 0
-11992 -11990 0
-11992 -11991 0
11992 11990 11991 0
-11987 -9790 0
-11987 11604 0
11987 9790 -11604 0
-11988 9790 0
-11988 -11604 0
11988 -9790 11604 0
-11989 -11987 0
-11989 -11988 0
11989 11987 11988 0
-11984 -9789 0
-11984 11603 0
11984 9789 -11603 0
-11985 9789 0
-11985 -11603 0
11985 -9789 11603 0
-11986 -11984 0
-11986 -11985 0
11986 11984 11985 0
-11981 -9788 0
-11981 11602 0
11981 9788 -11602 0
-11982 9788 0
-11982 -11602 0
11982 -9788 11602 0
-11983 -11981 0
-11983 -11982 0
11983 11981 11982 0
-11978 -9787 0
-11978 11601 0
11978 9787 -11601 0
-11979 9787 0
-11979 -11601 0
11979 -9787 11601 0
-11980 -11978 0
-11980 -11979 0
11980 11978 11979 0
-11975 -9786 0
-11975 11600 0
11975 9786 -11600 0
-11976 9786 0
-11976 -11600 0
11976 -9786 11600 0
-11977 -11975 0
-11977 -11976 0
11977 11975 11976 0
-11972 -9785 0
-11972 11599 0
11972 9785 -11599 0
-11973 9785 0
-11973 -11599 0
11973 -9785 11599 0
-11974 -11972 0
-11974 -11973 0
11974 11972 11973 0
-11969 -9784 0
-11969 11598 0
11969 9784 -11598 0
-11970 9784 0
-11970 -11598 0
11970 -9784 11598 0
-11971 -11969 0
-11971 -11970 0
11971 11969 11970 0
-11966 -9783 0
-11966 11597 0
11966 9783 -11597 0
-11967 9783 0
-11967 -11597 0
11967 -9783 11597 0
-11968 -11966 0
-11968 -11967 0
11968 11966 11967 0
-11963 -9782 0
-11963 11596 0
11963 9782 -11596 0
-11964 9782 0
-11964 -11596 0
11964 -9782 11596 0
-11965 -11963 0
-11965 -11964 0
11965 11963 11964 0
-11960 -9781 0
-11960 11595 0
11960 9781 -11595 0
-11961 9781 0
-11961 -11595 0
11961 -9781 11595 0
-11962 -11960 0
-11962 -11961 0
11962 11960 11961 0
-11957 -9780 0
-11957 11594 0
11957 9780 -11594 0
-11958 9780 0
-11958 -11594 0
11958 -9780 11594 0
-11959 -11957 0
-11959 -11958 0
11959 11957 11958 0
-11954 -9779 0
-11954 11593 0
11954 9779 -11593 0
-11955 9779 0
-11955 -11593 0
11955 -9779 11593 0
-11956 -11954 0
-11956 -11955 0
11956 11954 11955 0
-11951 -9778 0
-11951 11592 0
11951 9778 -11592 0
-11952 9778 0
-11952 -11592 0
11952 -9778 11592 0
-11953 -11951 0
-11953 -11952 0
11953 11951 11952 0
-11948 -9777 0
-11948 11591 0
11948 9777 -11591 0
-11949 9777 0
-11949 -11591 0
11949 -9777 11591 0
-11950 -11948 0
-11950 -11949 0
11950 11948 11949 0
-11945 -9776 0
-11945 11590 0
11945 9776 -11590 0
-11946 9776 0
-11946 -11590 0
11946 -9776 11590 0
-11947 -11945 0
-11947 -11946 0
11947 11945 11946 0
-11942 -9775 0
-11942 11589 0
11942 9775 -11589 0
-11943 9775 0
-11943 -11589 0
11943 -9775 11589 0
-11944 -11942 0
-11944 -11943 0
11944 11942 11943 0
-11939 -9774 0
-11939 11588 0
11939 9774 -11588 0
-11940 9774 0
-11940 -11588 0
11940 -9774 11588 0
-11941 -11939 0
-11941 -11940 0
11941 11939 11940 0
-11936 -9773 0
-11936 11587 0
11936 9773 -11587 0
-11937 9773 0
-11937 -11587 0
11937 -9773 11587 0
-11938 -11936 0
-11938 -11937 0
11938 11936 11937 0
-11933 -9772 0
-11933 11586 0
11933 9772 -11586 0
-11934 9772 0
-11934 -11586 0
11934 -9772 11586 0
-11935 -11933 0
-11935 -11934 0
11935 11933 11934 0
-11930 -9771 0
-11930 11585 0
11930 9771 -11585 0
-11931 9771 0
-11931 -11585 0
11931 -9771 11585 0
-11932 -11930 0
-11932 -11931 0
11932 11930 11931 0
-11927 -9770 0
-11927 11584 0
11927 9770 -11584 0
-11928 9770 0
-11928 -11584 0
11928 -9770 11584 0
-11929 -11927 0
-11929 -11928 0
11929 11927 11928 0
-11924 -9769 0
-11924 11583 0
11924 9769 -11583 0
-11925 9769 0
-11925 -11583 0
11925 -9769 11583 0
-11926 -11924 0
-11926 -11925 0
11926 11924 11925 0
-11921 -9768 0
-11921 11582 0
11921 9768 -11582 0
-11922 9768 0
-11922 -11582 0
11922 -9768 11582 0
-11923 -11921 0
-11923 -11922 0
11923 11921 11922 0
-11918 -9767 0
-11918 11581 0
11918 9767 -11581 0
-11919 9767 0
-11919 -11581 0
11919 -9767 11581 0
-11920 -11918 0
-11920 -11919 0
11920 11918 11919 0
-11915 -9766 0
-11915 11580 0
11915 9766 -11580 0
-11916 9766 0
-11916 -11580 0
11916 -9766 11580 0
-11917 -11915 0
-11917 -11916 0
11917 11915 11916 0
-11912 -9765 0
-11912 11579 0
11912 9765 -11579 0
-11913 9765 0
-11913 -11579 0
11913 -9765 11579 0
-11914 -11912 0
-11914 -11913 0
11914 11912 11913 0
-11909 -9764 0
-11909 11578 0
11909 9764 -11578 0
-11910 9764 0
-11910 -11578 0
11910 -9764 11578 0
-11911 -11909 0
-11911 -11910 0
11911 11909 11910 0
-11906 -9763 0
-11906 11577 0
11906 9763 -11577 0
-11907 9763 0
-11907 -11577 0
11907 -9763 11577 0
-11908 -11906 0
-11908 -11907 0
11908 11906 11907 0
-11903 -9762 0
-11903 11576 0
11903 9762 -11576 0
-11904 9762 0
-11904 -11576 0
11904 -9762 11576 0
-11905 -11903 0
-11905 -11904 0
11905 11903 11904 0
-11900 -9761 0
-11900 11575 0
11900 9761 -11575 0
-11901 9761 0
-11901 -11575 0
11901 -9761 11575 0
-11902 -11900 0
-11902 -11901 0
11902 11900 11901 0
-11897 -9760 0
-11897 11574 0
11897 9760 -11574 0
-11898 9760 0
-11898 -11574 0
11898 -9760 11574 0
-11899 -11897 0
-11899 -11898 0
11899 11897 11898 0
-11894 -9759 0
-11894 11573 0
11894 9759 -11573 0
-11895 9759 0
-11895 -11573 0
11895 -9759 11573 0
-11896 -11894 0
-11896 -11895 0
11896 11894 11895 0
-11891 -9758 0
-11891 11572 0
11891 9758 -11572 0
-11892 9758 0
-11892 -11572 0
11892 -9758 11572 0
-11893 -11891 0
-11893 -11892 0
11893 11891 11892 0
-11888 -9757 0
-11888 11571 0
11888 9757 -11571 0
-11889 9757 0
-11889 -11571 0
11889 -9757 11571 0
-11890 -11888 0
-11890 -11889 0
11890 11888 11889 0
-11882 -9755 0
-11882 11569 0
11882 9755 -11569 0
-11883 9755 0
-11883 -11569 0
11883 -9755 11569 0
-11884 -11882 0
-11884 -11883 0
11884 11882 11883 0
-11885 -9756 0
-11885 11570 0
11885 9756 -11570 0
-11886 9756 0
-11886 -11570 0
11886 -9756 11570 0
-11887 -11885 0
-11887 -11886 0
11887 11885 11886 0
-12068 11884 0
-12068 11887 0
12068 -11884 -11887 0
-12069 11890 0
-12069 12068 0
12069 -11890 -12068 0
-12070 11893 0
-12070 12069 0
12070 -11893 -12069 0
-12071 11896 0
-12071 12070 0
12071 -11896 -12070 0
-12072 11899 0
-12072 12071 0
12072 -11899 -12071 0
-12073 11902 0
-12073 12072 0
12073 -11902 -12072 0
-12074 11905 0
-12074 12073 0
12074 -11905 -12073 0
-12075 11908 0
-12075 12074 0
12075 -11908 -12074 0
-12076 11911 0
-12076 12075 0
12076 -11911 -12075 0
-12077 11914 0
-12077 12076 0
12077 -11914 -12076 0
-12078 11917 0
-12078 12077 0
12078 -11917 -12077 0
-12079 11920 0
-12079 12078 0
12079 -11920 -12078 0
-12080 11923 0
-12080 12079 0
12080 -11923 -12079 0
-12081 11926 0
-12081 12080 0
12081 -11926 -12080 0
-12082 11929 0
-12082 12081 0
12082 -11929 -12081 0
-12083 11932 0
-12083 12082 0
12083 -11932 -12082 0
-12084 11935 0
-12084 12083 0
12084 -11935 -12083 0
-12085 11938 0
-12085 12084 0
12085 -11938 -12084 0
-12086 11941 0
-12086 12085 0
12086 -11941 -12085 0
-12087 11944 0
-12087 12086 0
12087 -11944 -12086 0
-12088 11947 0
-12088 12087 0
12088 -11947 -12087 0
-12089 11950 0
-12089 12088 0
12089 -11950 -12088 0
-12090 11953 0
-12090 12089 0
12090 -11953 -12089 0
-12091 11956 0
-12091 12090 0
12091 -11956 -12090 0
-12092 11959 0
-12092 12091 0
12092 -11959 -12091 0
-12093 11962 0
-12093 12092 0
12093 -11962 -12092 0
-12094 11965 0
-12094 12093 0
12094 -11965 -12093 0
-12095 11968 0
-12095 12094 0
12095 -11968 -12094 0
-12096 11971 0
-12096 12095 0
12096 -11971 -12095 0
-12097 11974 0
-12097 12096 0
12097 -11974 -12096 0
-12098 11977 0
-12098 12097 0
12098 -11977 -12097 0
-12099 11980 0
-12099 12098 0
12099 -11980 -12098 0
-12100 11983 0
-12100 12099 0
12100 -11983 -12099 0
-12101 11986 0
-12101 12100 0
12101 -11986 -12100 0
-12102 11989 0
-12102 12101 0
12102 -11989 -12101 0
-12103 11992 0
-12103 12102 0
12103 -11992 -12102 0
-12104 11995 0
-12104 12103 0
12104 -11995 -12103 0
-12105 11998 0
-12105 12104 0
12105 -11998 -12104 0
-12106 12001 0
-12106 12105 0
12106 -12001 -12105 0
-12107 12004 0
-12107 12106 0
12107 -12004 -12106 0
-12108 12007 0
-12108 12107 0
12108 -12007 -12107 0
-12109 12010 0
-12109 12108 0
12109 -12010 -12108 0
-12110 12013 0
-12110 12109 0
12110 -12013 -12109 0
-12111 12016 0
-12111 12110 0
12111 -12016 -12110 0
-12112 12019 0
-12112 12111 0
12112 -12019 -12111 0
-12113 12022 0
-12113 12112 0
12113 -12022 -12112 0
-12114 12025 0
-12114 12113 0
12114 -12025 -12113 0
-12115 12028 0
-12115 12114 0
12115 -12028 -12114 0
-12116 12031 0
-12116 12115 0
12116 -12031 -12115 0
-12117 12034 0
-12117 12116 0
12117 -12034 -12116 0
-12118 12037 0
-12118 12117 0
12118 -12037 -12117 0
-12119 12040 0
-12119 12118 0
12119 -12040 -12118 0
-12120 12043 0
-12120 12119 0
12120 -12043 -12119 0
-12121 12046 0
-12121 12120 0
12121 -12046 -12120 0
-12122 12049 0
-12122 12121 0
12122 -12049 -12121 0
-12123 12052 0
-12123 12122 0
12123 -12052 -12122 0
-12124 12055 0
-12124 12123 0
12124 -12055 -12123 0
-12125 12058 0
-12125 12124 0
12125 -12058 -12124 0
-12126 12061 0
-12126 12125 0
12126 -12061 -12125 0
-12127 12064 0
-12127 12126 0
12127 -12064 -12126 0
-12128 12067 0
-12128 12127 0
12128 -12067 -12127 0
-12129 -11631 0
-12129 12128 0
12129 11631 -12128 0
-12130 -9711 0
-12130 -12129 0
12130 9711 12129 0
-12131 11881 0
-12131 -12130 0
12131 -11881 12130 0
12195 -17385 0
-12195 17385 0
12194 -17384 0
-12194 17384 0
-12619 10378 0
-12619 10379 0
12619 -10378 -10379 0
-12612 10377 0
-12612 10378 0
12612 -10377 -10378 0
-12605 10376 0
-12605 10377 0
12605 -10376 -10377 0
-12598 10375 0
-12598 10376 0
12598 -10375 -10376 0
-12591 10374 0
-12591 10375 0
12591 -10374 -10375 0
-12584 10373 0
-12584 10374 0
12584 -10373 -10374 0
-12577 10372 0
-12577 10373 0
12577 -10372 -10373 0
-12570 10371 0
-12570 10372 0
12570 -10371 -10372 0
-12563 10370 0
-12563 10371 0
12563 -10370 -10371 0
-12556 10369 0
-12556 10370 0
12556 -10369 -10370 0
-12549 10368 0
-12549 10369 0
12549 -10368 -10369 0
-12542 10367 0
-12542 10368 0
12542 -10367 -10368 0
-12535 10366 0
-12535 10367 0
12535 -10366 -10367 0
-12528 10365 0
-12528 10366 0
12528 -10365 -10366 0
-12521 10364 0
-12521 10365 0
12521 -10364 -10365 0
-12514 10363 0
-12514 10364 0
12514 -10363 -10364 0
-12507 10362 0
-12507 10363 0
12507 -10362 -10363 0
-12500 10361 0
-12500 10362 0
12500 -10361 -10362 0
-12493 10360 0
-12493 10361 0
12493 -10360 -10361 0
-12486 10359 0
-12486 10360 0
12486 -10359 -10360 0
-12479 10358 0
-12479 10359 0
12479 -10358 -10359 0
-12472 10357 0
-12472 10358 0
12472 -10357 -10358 0
-12465 10356 0
-12465 10357 0
12465 -10356 -10357 0
-12458 10355 0
-12458 10356 0
12458 -10355 -10356 0
-12451 10354 0
-12451 10355 0
12451 -10354 -10355 0
-12444 10353 0
-12444 10354 0
12444 -10353 -10354 0
-12437 10352 0
-12437 10353 0
12437 -10352 -10353 0
-12430 10351 0
-12430 10352 0
12430 -10351 -10352 0
-12423 10350 0
-12423 10351 0
12423 -10350 -10351 0
-12416 10349 0
-12416 10350 0
12416 -10349 -10350 0
-12409 10348 0
-12409 10349 0
12409 -10348 -10349 0
-12402 10347 0
-12402 10348 0
12402 -10347 -10348 0
-12395 10346 0
-12395 10347 0
12395 -10346 -10347 0
-12388 10345 0
-12388 10346 0
12388 -10345 -10346 0
-12381 10344 0
-12381 10345 0
12381 -10344 -10345 0
-12374 10343 0
-12374 10344 0
12374 -10343 -10344 0
-12367 10342 0
-12367 10343 0
12367 -10342 -10343 0
-12360 10341 0
-12360 10342 0
12360 -10341 -10342 0
-12353 10340 0
-12353 10341 0
12353 -10340 -10341 0
-12346 10339 0
-12346 10340 0
12346 -10339 -10340 0
-12339 10338 0
-12339 10339 0
12339 -10338 -10339 0
-12332 10337 0
-12332 10338 0
12332 -10337 -10338 0
-12325 10336 0
-12325 10337 0
12325 -10336 -10337 0
-12318 10335 0
-12318 10336 0
12318 -10335 -10336 0
-12311 10334 0
-12311 10335 0
12311 -10334 -10335 0
-12304 10333 0
-12304 10334 0
12304 -10333 -10334 0
-12297 10332 0
-12297 10333 0
12297 -10332 -10333 0
-12290 10331 0
-12290 10332 0
12290 -10331 -10332 0
-12283 10330 0
-12283 10331 0
12283 -10330 -10331 0
-12276 10329 0
-12276 10330 0
12276 -10329 -10330 0
-12269 10328 0
-12269 10329 0
12269 -10328 -10329 0
-12262 10327 0
-12262 10328 0
12262 -10327 -10328 0
-12255 10326 0
-12255 10327 0
12255 -10326 -10327 0
-12248 10325 0
-12248 10326 0
12248 -10325 -10326 0
-12241 10324 0
-12241 10325 0
12241 -10324 -10325 0
-12234 10323 0
-12234 10324 0
12234 -10323 -10324 0
-12227 10322 0
-12227 10323 0
12227 -10322 -10323 0
-12220 10321 0
-12220 10322 0
12220 -10321 -10322 0
-12213 10320 0
-12213 10321 0
12213 -10320 -10321 0
-12206 10319 0
-12206 10320 0
12206 -10319 -10320 0
-12199 10318 0
-12199 10319 0
12199 -10318 -10319 0
-12196 10317 0
-12196 10318 0
12196 -10317 -10318 0
-12200 -10318 0
-12200 -10319 0
12200 10318 10319 0
-12201 -12199 0
-12201 -12200 0
12201 12199 12200 0
-12202 12196 0
-12202 12201 0
12202 -12196 -12201 0
-12205 -12199 0
-12205 -12202 0
12205 12199 12202 0
-12207 -10319 0
-12207 -10320 0
12207 10319 10320 0
-12208 -12206 0
-12208 -12207 0
12208 12206 12207 0
-12209 -12205 0
-12209 12208 0
12209 12205 -12208 0
-12212 -12206 0
-12212 -12209 0
12212 12206 12209 0
-12214 -10320 0
-12214 -10321 0
12214 10320 10321 0
-12215 -12213 0
-12215 -12214 0
12215 12213 12214 0
-12216 -12212 0
-12216 12215 0
12216 12212 -12215 0
-12219 -12213 0
-12219 -12216 0
12219 12213 12216 0
-12221 -10321 0
-12221 -10322 0
12221 10321 10322 0
-12222 -12220 0
-12222 -12221 0
12222 12220 12221 0
-12223 -12219 0
-12223 12222 0
12223 12219 -12222 0
-12226 -12220 0
-12226 -12223 0
12226 12220 12223 0
-12228 -10322 0
-12228 -10323 0
12228 10322 10323 0
-12229 -12227 0
-12229 -12228 0
12229 12227 12228 0
-12230 -12226 0
-12230 12229 0
12230 12226 -12229 0
-12233 -12227 0
-12233 -12230 0
12233 12227 12230 0
-12235 -10323 0
-12235 -10324 0
12235 10323 10324 0
-12236 -12234 0
-12236 -12235 0
12236 12234 12235 0
-12237 -12233 0
-12237 12236 0
12237 12233 -12236 0
-12240 -12234 0
-12240 -12237 0
12240 12234 12237 0
-12242 -10324 0
-12242 -10325 0
12242 10324 10325 0
-12243 -12241 0
-12243 -12242 0
12243 12241 12242 0
-12244 -12240 0
-12244 12243 0
12244 12240 -12243 0
-12247 -12241 0
-12247 -12244 0
12247 12241 12244 0
-12249 -10325 0
-12249 -10326 0
12249 10325 10326 0
-12250 -12248 0
-12250 -12249 0
12250 12248 12249 0
-12251 -12247 0
-12251 12250 0
12251 12247 -12250 0
-12254 -12248 0
-12254 -12251 0
12254 12248 12251 0
-12256 -10326 0
-12256 -10327 0
12256 10326 10327 0
-12257 -12255 0
-12257 -12256 0
12257 12255 12256 0
-12258 -12254 0
-12258 12257 0
12258 12254 -12257 0
-12261 -12255 0
-12261 -12258 0
12261 12255 12258 0
-12263 -10327 0
-12263 -10328 0
12263 10327 10328 0
-12264 -12262 0
-12264 -12263 0
12264 12262 12263 0
-12265 -12261 0
-12265 12264 0
12265 12261 -12264 0
-12268 -12262 0
-12268 -12265 0
12268 12262 12265 0
-12270 -10328 0
-12270 -10329 0
12270 10328 10329 0
-12271 -12269 0
-12271 -12270 0
12271 12269 12270 0
-12272 -12268 0
-12272 12271 0
12272 12268 -12271 0
-12275 -12269 0
-12275 -12272 0
12275 12269 12272 0
-12277 -10329 0
-12277 -10330 0
12277 10329 10330 0
-12278 -12276 0
-12278 -12277 0
12278 12276 12277 0
-12279 -12275 0
-12279 12278 0
12279 12275 -12278 0
-12282 -12276 0
-12282 -12279 0
12282 12276 12279 0
-12284 -10330 0
-12284 -10331 0
12284 10330 10331 0
-12285 -12283 0
-12285 -12284 0
12285 12283 12284 0
-12286 -12282 0
-12286 12285 0
12286 12282 -12285 0
-12289 -12283 0
-12289 -12286 0
12289 12283 12286 0
-12291 -10331 0
-12291 -10332 0
12291 10331 10332 0
-12292 -12290 0
-12292 -12291 0
12292 12290 12291 0
-12293 -12289 0
-12293 12292 0
12293 12289 -12292 0
-12296 -12290 0
-12296 -12293 0
12296 12290 12293 0
-12298 -10332 0
-12298 -10333 0
12298 10332 10333 0
-12299 -12297 0
-12299 -12298 0
12299 12297 12298 0
-12300 -12296 0
-12300 12299 0
12300 12296 -12299 0
-12303 -12297 0
-12303 -12300 0
12303 12297 12300 0
-12305 -10333 0
-12305 -10334 0
12305 10333 10334 0
-12306 -12304 0
-12306 -12305 0
12306 12304 12305 0
-12307 -12303 0
-12307 12306 0
12307 12303 -12306 0
-12310 -12304 0
-12310 -12307 0
12310 12304 12307 0
-12312 -10334 0
-12312 -10335 0
12312 10334 10335 0
-12313 -12311 0
-12313 -12312 0
12313 12311 12312 0
-12314 -12310 0
-12314 12313 0
12314 12310 -12313 0
-12317 -12311 0
-12317 -12314 0
12317 12311 12314 0
-12319 -10335 0
-12319 -10336 0
12319 10335 10336 0
-12320 -12318 0
-12320 -12319 0
12320 12318 12319 0
-12321 -12317 0
-12321 12320 0
12321 12317 -12320 0
-12324 -12318 0
-12324 -12321 0
12324 12318 12321 0
-12326 -10336 0
-12326 -10337 0
12326 10336 10337 0
-12327 -12325 0
-12327 -12326 0
12327 12325 12326 0
-12328 -12324 0
-12328 12327 0
12328 12324 -12327 0
-12331 -12325 0
-12331 -12328 0
12331 12325 12328 0
-12333 -10337 0
-12333 -10338 0
12333 10337 10338 0
-12334 -12332 0
-12334 -12333 0
12334 12332 12333 0
-12335 -12331 0
-12335 12334 0
12335 12331 -12334 0
-12338 -12332 0
-12338 -12335 0
12338 12332 12335 0
-12340 -10338 0
-12340 -10339 0
12340 10338 10339 0
-12341 -12339 0
-12341 -12340 0
12341 12339 12340 0
-12342 -12338 0
-12342 12341 0
12342 12338 -12341 0
-12345 -12339 0
-12345 -12342 0
12345 12339 12342 0
-12347 -10339 0
-12347 -10340 0
12347 10339 10340 0
-12348 -12346 0
-12348 -12347 0
12348 12346 12347 0
-12349 -12345 0
-12349 12348 0
12349 12345 -12348 0
-12352 -12346 0
-12352 -12349 0
12352 12346 12349 0
-12354 -10340 0
-12354 -10341 0
12354 10340 10341 0
-12355 -12353 0
-12355 -12354 0
12355 12353 12354 0
-12356 -12352 0
-12356 12355 0
12356 12352 -12355 0
-12359 -12353 0
-12359 -12356 0
12359 12353 12356 0
-12361 -10341 0
-12361 -10342 0
12361 10341 10342 0
-12362 -12360 0
-12362 -12361 0
12362 12360 12361 0
-12363 -12359 0
-12363 12362 0
12363 12359 -12362 0
-12366 -12360 0
-12366 -12363 0
12366 12360 12363 0
-12368 -10342 0
-12368 -10343 0
12368 10342 10343 0
-12369 -12367 0
-12369 -12368 0
12369 12367 12368 0
-12370 -12366 0
-12370 12369 0
12370 12366 -12369 0
-12373 -12367 0
-12373 -12370 0
12373 12367 12370 0
-12375 -10343 0
-12375 -10344 0
12375 10343 10344 0
-12376 -12374 0
-12376 -12375 0
12376 12374 12375 0
-12377 -12373 0
-12377 12376 0
12377 12373 -12376 0
-12380 -12374 0
-12380 -12377 0
12380 12374 12377 0
-12382 -10344 0
-12382 -10345 0
12382 10344 10345 0
-12383 -12381 0
-12383 -12382 0
12383 12381 12382 0
-12384 -12380 0
-12384 12383 0
12384 12380 -12383 0
-12387 -12381 0
-12387 -12384 0
12387 12381 12384 0
-12389 -10345 0
-12389 -10346 0
12389 10345 10346 0
-12390 -12388 0
-12390 -12389 0
12390 12388 12389 0
-12391 -12387 0
-12391 12390 0
12391 12387 -12390 0
-12394 -12388 0
-12394 -12391 0
12394 12388 12391 0
-12396 -10346 0
-12396 -10347 0
12396 10346 10347 0
-12397 -12395 0
-12397 -12396 0
12397 12395 12396 0
-12398 -12394 0
-12398 12397 0
12398 12394 -12397 0
-12401 -12395 0
-12401 -12398 0
12401 12395 12398 0
-12403 -10347 0
-12403 -10348 0
12403 10347 10348 0
-12404 -12402 0
-12404 -12403 0
12404 12402 12403 0
-12405 -12401 0
-12405 12404 0
12405 12401 -12404 0
-12408 -12402 0
-12408 -12405 0
12408 12402 12405 0
-12410 -10348 0
-12410 -10349 0
12410 10348 10349 0
-12411 -12409 0
-12411 -12410 0
12411 12409 12410 0
-12412 -12408 0
-12412 12411 0
12412 12408 -12411 0
-12415 -12409 0
-12415 -12412 0
12415 12409 12412 0
-12417 -10349 0
-12417 -10350 0
12417 10349 10350 0
-12418 -12416 0
-12418 -12417 0
12418 12416 12417 0
-12419 -12415 0
-12419 12418 0
12419 12415 -12418 0
-12422 -12416 0
-12422 -12419 0
12422 12416 12419 0
-12424 -10350 0
-12424 -10351 0
12424 10350 10351 0
-12425 -12423 0
-12425 -12424 0
12425 12423 12424 0
-12426 -12422 0
-12426 12425 0
12426 12422 -12425 0
-12429 -12423 0
-12429 -12426 0
12429 12423 12426 0
-12431 -10351 0
-12431 -10352 0
12431 10351 10352 0
-12432 -12430 0
-12432 -12431 0
12432 12430 12431 0
-12433 -12429 0
-12433 12432 0
12433 12429 -12432 0
-12436 -12430 0
-12436 -12433 0
12436 12430 12433 0
-12438 -10352 0
-12438 -10353 0
12438 10352 10353 0
-12439 -12437 0
-12439 -12438 0
12439 12437 12438 0
-12440 -12436 0
-12440 12439 0
12440 12436 -12439 0
-12443 -12437 0
-12443 -12440 0
12443 12437 12440 0
-12445 -10353 0
-12445 -10354 0
12445 10353 10354 0
-12446 -12444 0
-12446 -12445 0
12446 12444 12445 0
-12447 -12443 0
-12447 12446 0
12447 12443 -12446 0
-12450 -12444 0
-12450 -12447 0
12450 12444 12447 0
-12452 -10354 0
-12452 -10355 0
12452 10354 10355 0
-12453 -12451 0
-12453 -12452 0
12453 12451 12452 0
-12454 -12450 0
-12454 12453 0
12454 12450 -12453 0
-12457 -12451 0
-12457 -12454 0
12457 12451 12454 0
-12459 -10355 0
-12459 -10356 0
12459 10355 10356 0
-12460 -12458 0
-12460 -12459 0
12460 12458 12459 0
-12461 -12457 0
-12461 12460 0
12461 12457 -12460 0
-12464 -12458 0
-12464 -12461 0
12464 12458 12461 0
-12466 -10356 0
-12466 -10357 0
12466 10356 10357 0
-12467 -12465 0
-12467 -12466 0
12467 12465 12466 0
-12468 -12464 0
-12468 12467 0
12468 12464 -12467 0
-12471 -12465 0
-12471 -12468 0
12471 12465 12468 0
-12473 -10357 0
-12473 -10358 0
12473 10357 10358 0
-12474 -12472 0
-12474 -12473 0
12474 12472 12473 0
-12475 -12471 0
-12475 12474 0
12475 12471 -12474 0
-12478 -12472 0
-12478 -12475 0
12478 12472 12475 0
-12480 -10358 0
-12480 -10359 0
12480 10358 10359 0
-12481 -12479 0
-12481 -12480 0
12481 12479 12480 0
-12482 -12478 0
-12482 12481 0
12482 12478 -12481 0
-12485 -12479 0
-12485 -12482 0
12485 12479 12482 0
-12487 -10359 0
-12487 -10360 0
12487 10359 10360 0
-12488 -12486 0
-12488 -12487 0
12488 12486 12487 0
-12489 -12485 0
-12489 12488 0
12489 12485 -12488 0
-12492 -12486 0
-12492 -12489 0
12492 12486 12489 0
-12494 -10360 0
-12494 -10361 0
12494 10360 10361 0
-12495 -12493 0
-12495 -12494 0
12495 12493 12494 0
-12496 -12492 0
-12496 12495 0
12496 12492 -12495 0
-12499 -12493 0
-12499 -12496 0
12499 12493 12496 0
-12501 -10361 0
-12501 -10362 0
12501 10361 10362 0
-12502 -12500 0
-12502 -12501 0
12502 12500 12501 0
-12503 -12499 0
-12503 12502 0
12503 12499 -12502 0
-12506 -12500 0
-12506 -12503 0
12506 12500 12503 0
-12508 -10362 0
-12508 -10363 0
12508 10362 10363 0
-12509 -12507 0
-12509 -12508 0
12509 12507 12508 0
-12510 -12506 0
-12510 12509 0
12510 12506 -12509 0
-12513 -12507 0
-12513 -12510 0
12513 12507 12510 0
-12515 -10363 0
-12515 -10364 0
12515 10363 10364 0
-12516 -12514 0
-12516 -12515 0
12516 12514 12515 0
-12517 -12513 0
-12517 12516 0
12517 12513 -12516 0
-12520 -12514 0
-12520 -12517 0
12520 12514 12517 0
-12522 -10364 0
-12522 -10365 0
12522 10364 10365 0
-12523 -12521 0
-12523 -12522 0
12523 12521 12522 0
-12524 -12520 0
-12524 12523 0
12524 12520 -12523 0
-12527 -12521 0
-12527 -12524 0
12527 12521 12524 0
-12529 -10365 0
-12529 -10366 0
12529 10365 10366 0
-12530 -12528 0
-12530 -12529 0
12530 12528 12529 0
-12531 -12527 0
-12531 12530 0
12531 12527 -12530 0
-12534 -12528 0
-12534 -12531 0
12534 12528 12531 0
-12536 -10366 0
-12536 -10367 0
12536 10366 10367 0
-12537 -12535 0
-12537 -12536 0
12537 12535 12536 0
-12538 -12534 0
-12538 12537 0
12538 12534 -12537 0
-12541 -12535 0
-12541 -12538 0
12541 12535 12538 0
-12543 -10367 0
-12543 -10368 0
12543 10367 10368 0
-12544 -12542 0
-12544 -12543 0
12544 12542 12543 0
-12545 -12541 0
-12545 12544 0
12545 12541 -12544 0
-12548 -12542 0
-12548 -12545 0
12548 12542 12545 0
-12550 -10368 0
-12550 -10369 0
12550 10368 10369 0
-12551 -12549 0
-12551 -12550 0
12551 12549 12550 0
-12552 -12548 0
-12552 12551 0
12552 12548 -12551 0
-12555 -12549 0
-12555 -12552 0
12555 12549 12552 0
-12557 -10369 0
-12557 -10370 0
12557 10369 10370 0
-12558 -12556 0
-12558 -12557 0
12558 12556 12557 0
-12559 -12555 0
-12559 12558 0
12559 12555 -12558 0
-12562 -12556 0
-12562 -12559 0
12562 12556 12559 0
-12564 -10370 0
-12564 -10371 0
12564 10370 10371 0
-12565 -12563 0
-12565 -12564 0
12565 12563 12564 0
-12566 -12562 0
-12566 12565 0
12566 12562 -12565 0
-12569 -12563 0
-12569 -12566 0
12569 12563 12566 0
-12571 -10371 0
-12571 -10372 0
12571 10371 10372 0
-12572 -12570 0
-12572 -12571 0
12572 12570 12571 0
-12573 -12569 0
-12573 12572 0
12573 12569 -12572 0
-12576 -12570 0
-12576 -12573 0
12576 12570 12573 0
-12578 -10372 0
-12578 -10373 0
12578 10372 10373 0
-12579 -12577 0
-12579 -12578 0
12579 12577 12578 0
-12580 -12576 0
-12580 12579 0
12580 12576 -12579 0
-12583 -12577 0
-12583 -12580 0
12583 12577 12580 0
-12585 -10373 0
-12585 -10374 0
12585 10373 10374 0
-12586 -12584 0
-12586 -12585 0
12586 12584 12585 0
-12587 -12583 0
-12587 12586 0
12587 12583 -12586 0
-12590 -12584 0
-12590 -12587 0
12590 12584 12587 0
-12592 -10374 0
-12592 -10375 0
12592 10374 10375 0
-12593 -12591 0
-12593 -12592 0
12593 12591 12592 0
-12594 -12590 0
-12594 12593 0
12594 12590 -12593 0
-12597 -12591 0
-12597 -12594 0
12597 12591 12594 0
-12599 -10375 0
-12599 -10376 0
12599 10375 10376 0
-12600 -12598 0
-12600 -12599 0
12600 12598 12599 0
-12601 -12597 0
-12601 12600 0
12601 12597 -12600 0
-12604 -12598 0
-12604 -12601 0
12604 12598 12601 0
-12606 -10376 0
-12606 -10377 0
12606 10376 10377 0
-12607 -12605 0
-12607 -12606 0
12607 12605 12606 0
-12608 -12604 0
-12608 12607 0
12608 12604 -12607 0
-12611 -12605 0
-12611 -12608 0
12611 12605 12608 0
-12613 -10377 0
-12613 -10378 0
12613 10377 10378 0
-12614 -12612 0
-12614 -12613 0
12614 12612 12613 0
-12615 -12611 0
-12615 12614 0
12615 12611 -12614 0
-12618 -12612 0
-12618 -12615 0
12618 12612 12615 0
-12620 -10378 0
-12620 -10379 0
12620 10378 10379 0
-12621 -12619 0
-12621 -12620 0
12621 12619 12620 0
-12622 -12618 0
-12622 12621 0
12622 12618 -12621 0
-12625 -12619 0
-12625 -12622 0
12625 12619 12622 0
-12626 10379 0
-12626 10380 0
12626 -10379 -10380 0
-12627 -10379 0
-12627 -10380 0
12627 10379 10380 0
-12628 -12626 0
-12628 -12627 0
12628 12626 12627 0
-12629 -12625 0
-12629 12628 0
12629 12625 -12628 0
-12630 12625 0
-12630 -12628 0
12630 -12625 12628 0
-12631 -12629 0
-12631 -12630 0
12631 12629 12630 0
-12623 12618 0
-12623 -12621 0
12623 -12618 12621 0
-12624 -12622 0
-12624 -12623 0
12624 12622 12623 0
-12616 12611 0
-12616 -12614 0
12616 -12611 12614 0
-12617 -12615 0
-12617 -12616 0
12617 12615 12616 0
-12609 12604 0
-12609 -12607 0
12609 -12604 12607 0
-12610 -12608 0
-12610 -12609 0
12610 12608 12609 0
-12602 12597 0
-12602 -12600 0
12602 -12597 12600 0
-12603 -12601 0
-12603 -12602 0
12603 12601 12602 0
-12595 12590 0
-12595 -12593 0
12595 -12590 12593 0
-12596 -12594 0
-12596 -12595 0
12596 12594 12595 0
-12588 12583 0
-12588 -12586 0
12588 -12583 12586 0
-12589 -12587 0
-12589 -12588 0
12589 12587 12588 0
-12581 12576 0
-12581 -12579 0
12581 -12576 12579 0
-12582 -12580 0
-12582 -12581 0
12582 12580 12581 0
-12574 12569 0
-12574 -12572 0
12574 -12569 12572 0
-12575 -12573 0
-12575 -12574 0
12575 12573 12574 0
-12567 12562 0
-12567 -12565 0
12567 -12562 12565 0
-12568 -12566 0
-12568 -12567 0
12568 12566 12567 0
-12560 12555 0
-12560 -12558 0
12560 -12555 12558 0
-12561 -12559 0
-12561 -12560 0
12561 12559 12560 0
-12553 12548 0
-12553 -12551 0
12553 -12548 12551 0
-12554 -12552 0
-12554 -12553 0
12554 12552 12553 0
-12546 12541 0
-12546 -12544 0
12546 -12541 12544 0
-12547 -12545 0
-12547 -12546 0
12547 12545 12546 0
-12539 12534 0
-12539 -12537 0
12539 -12534 12537 0
-12540 -12538 0
-12540 -12539 0
12540 12538 12539 0
-12532 12527 0
-12532 -12530 0
12532 -12527 12530 0
-12533 -12531 0
-12533 -12532 0
12533 12531 12532 0
-12525 12520 0
-12525 -12523 0
12525 -12520 12523 0
-12526 -12524 0
-12526 -12525 0
12526 12524 12525 0
-12518 12513 0
-12518 -12516 0
12518 -12513 12516 0
-12519 -12517 0
-12519 -12518 0
12519 12517 12518 0
-12511 12506 0
-12511 -12509 0
12511 -12506 12509 0
-12512 -12510 0
-12512 -12511 0
12512 12510 12511 0
-12504 12499 0
-12504 -12502 0
12504 -12499 12502 0
-12505 -12503 0
-12505 -12504 0
12505 12503 12504 0
-12497 12492 0
-12497 -12495 0
12497 -12492 12495 0
-12498 -12496 0
-12498 -12497 0
12498 12496 12497 0
-12490 12485 0
-12490 -12488 0
12490 -12485 12488 0
-12491 -12489 0
-12491 -12490 0
12491 12489 12490 0
-12483 12478 0
-12483 -12481 0
12483 -12478 12481 0
-12484 -12482 0
-12484 -12483 0
12484 12482 12483 0
-12476 12471 0
-12476 -12474 0
12476 -12471 12474 0
-12477 -12475 0
-12477 -12476 0
12477 12475 12476 0
-12469 12464 0
-12469 -12467 0
12469 -12464 12467 0
-12470 -12468 0
-12470 -12469 0
12470 12468 12469 0
-12462 12457 0
-12462 -12460 0
12462 -12457 12460 0
-12463 -12461 0
-12463 -12462 0
12463 12461 12462 0
-12455 12450 0
-12455 -12453 0
12455 -12450 12453 0
-12456 -12454 0
-12456 -12455 0
12456 12454 12455 0
-12448 12443 0
-12448 -12446 0
12448 -12443 12446 0
-12449 -12447 0
-12449 -12448 0
12449 12447 12448 0
-12441 12436 0
-12441 -12439 0
12441 -12436 12439 0
-12442 -12440 0
-12442 -12441 0
12442 12440 12441 0
-12434 12429 0
-12434 -12432 0
12434 -12429 12432 0
-12435 -12433 0
-12435 -12434 0
12435 12433 12434 0
-12427 12422 0
-12427 -12425 0
12427 -12422 12425 0
-12428 -12426 0
-12428 -12427 0
12428 12426 12427 0
-12420 12415 0
-12420 -12418 0
12420 -12415 12418 0
-12421 -12419 0
-12421 -12420 0
12421 12419 12420 0
-12413 12408 0
-12413 -12411 0
12413 -12408 12411 0
-12414 -12412 0
-12414 -12413 0
12414 12412 12413 0
-12406 12401 0
-12406 -12404 0
12406 -12401 12404 0
-12407 -12405 0
-12407 -12406 0
12407 12405 12406 0
-12399 12394 0
-12399 -12397 0
12399 -12394 12397 0
-12400 -12398 0
-12400 -12399 0
12400 12398 12399 0
-12392 12387 0
-12392 -12390 0
12392 -12387 12390 0
-12393 -12391 0
-12393 -12392 0
12393 12391 12392 0
-12385 12380 0
-12385 -12383 0
12385 -12380 12383 0
-12386 -12384 0
-12386 -12385 0
12386 12384 12385 0
-12378 12373 0
-12378 -12376 0
12378 -12373 12376 0
-12379 -12377 0
-12379 -12378 0
12379 12377 12378 0
-12371 12366 0
-12371 -12369 0
12371 -12366 12369 0
-12372 -12370 0
-12372 -12371 0
12372 12370 12371 0
-12364 12359 0
-12364 -12362 0
12364 -12359 12362 0
-12365 -12363 0
-12365 -12364 0
12365 12363 12364 0
-12357 12352 0
-12357 -12355 0
12357 -12352 12355 0
-12358 -12356 0
-12358 -12357 0
12358 12356 12357 0
-12350 12345 0
-12350 -12348 0
12350 -12345 12348 0
-12351 -12349 0
-12351 -12350 0
12351 12349 12350 0
-12343 12338 0
-12343 -12341 0
12343 -12338 12341 0
-12344 -12342 0
-12344 -12343 0
12344 12342 12343 0
-12336 12331 0
-12336 -12334 0
12336 -12331 12334 0
-12337 -12335 0
-12337 -12336 0
12337 12335 12336 0
-12329 12324 0
-12329 -12327 0
12329 -12324 12327 0
-12330 -12328 0
-12330 -12329 0
12330 12328 12329 0
-12322 12317 0
-12322 -12320 0
12322 -12317 12320 0
-12323 -12321 0
-12323 -12322 0
12323 12321 12322 0
-12315 12310 0
-12315 -12313 0
12315 -12310 12313 0
-12316 -12314 0
-12316 -12315 0
12316 12314 12315 0
-12308 12303 0
-12308 -12306 0
12308 -12303 12306 0
-12309 -12307 0
-12309 -12308 0
12309 12307 12308 0
-12301 12296 0
-12301 -12299 0
12301 -12296 12299 0
-12302 -12300 0
-12302 -12301 0
12302 12300 12301 0
-12294 12289 0
-12294 -12292 0
12294 -12289 12292 0
-12295 -12293 0
-12295 -12294 0
12295 12293 12294 0
-12287 12282 0
-12287 -12285 0
12287 -12282 12285 0
-12288 -12286 0
-12288 -12287 0
12288 12286 12287 0
-12280 12275 0
-12280 -12278 0
12280 -12275 12278 0
-12281 -12279 0
-12281 -12280 0
12281 12279 12280 0
-12273 12268 0
-12273 -12271 0
12273 -12268 12271 0
-12274 -12272 0
-12274 -12273 0
12274 12272 12273 0
-12266 12261 0
-12266 -12264 0
12266 -12261 12264 0
-12267 -12265 0
-12267 -12266 0
12267 12265 12266 0
-12259 12254 0
-12259 -12257 0
12259 -12254 12257 0
-12260 -12258 0
-12260 -12259 0
12260 12258 12259 0
-12252 12247 0
-12252 -12250 0
12252 -12247 12250 0
-12253 -12251 0
-12253 -12252 0
12253 12251 12252 0
-12245 12240 0
-12245 -12243 0
12245 -12240 12243 0
-12246 -12244 0
-12246 -12245 0
12246 12244 12245 0
-12238 12233 0
-12238 -12236 0
12238 -12233 12236 0
-12239 -12237 0
-12239 -12238 0
12239 12237 12238 0
-12231 12226 0
-12231 -12229 0
12231 -12226 12229 0
-12232 -12230 0
-12232 -12231 0
12232 12230 12231 0
-12224 12219 0
-12224 -12222 0
12224 -12219 12222 0
-12225 -12223 0
-12225 -12224 0
12225 12223 12224 0
-12217 12212 0
-12217 -12215 0
12217 -12212 12215 0
-12218 -12216 0
-12218 -12217 0
12218 12216 12217 0
-12210 12205 0
-12210 -12208 0
12210 -12205 12208 0
-12211 -12209 0
-12211 -12210 0
12211 12209 12210 0
-12203 -12196 0
-12203 -12201 0
12203 12196 12201 0
-12204 -12202 0
-12204 -12203 0
12204 12202 12203 0
-12197 -10317 0
-12197 -10318 0
12197 10317 10318 0
-12198 -12196 0
-12198 -12197 0
12198 12196 12197 0
-12633 10317 0
-12633 12198 0
12633 -10317 -12198 0
-12636 12204 0
-12636 12633 0
12636 -12204 -12633 0
-12639 12211 0
-12639 12636 0
12639 -12211 -12636 0
-12642 12218 0
-12642 12639 0
12642 -12218 -12639 0
-12645 12225 0
-12645 12642 0
12645 -12225 -12642 0
-12648 12232 0
-12648 12645 0
12648 -12232 -12645 0
-12651 12239 0
-12651 12648 0
12651 -12239 -12648 0
-12654 12246 0
-12654 12651 0
12654 -12246 -12651 0
-12657 12253 0
-12657 12654 0
12657 -12253 -12654 0
-12660 12260 0
-12660 12657 0
12660 -12260 -12657 0
-12663 12267 0
-12663 12660 0
12663 -12267 -12660 0
-12666 12274 0
-12666 12663 0
12666 -12274 -12663 0
-12669 12281 0
-12669 12666 0
12669 -12281 -12666 0
-12672 12288 0
-12672 12669 0
12672 -12288 -12669 0
-12675 12295 0
-12675 12672 0
12675 -12295 -12672 0
-12678 12302 0
-12678 12675 0
12678 -12302 -12675 0
-12681 12309 0
-12681 12678 0
12681 -12309 -12678 0
-12684 12316 0
-12684 12681 0
12684 -12316 -12681 0
-12687 12323 0
-12687 12684 0
12687 -12323 -12684 0
-12690 12330 0
-12690 12687 0
12690 -12330 -12687 0
-12693 12337 0
-12693 12690 0
12693 -12337 -12690 0
-12696 12344 0
-12696 12693 0
12696 -12344 -12693 0
-12699 12351 0
-12699 12696 0
12699 -12351 -12696 0
-12702 12358 0
-12702 12699 0
12702 -12358 -12699 0
-12705 12365 0
-12705 12702 0
12705 -12365 -12702 0
-12708 12372 0
-12708 12705 0
12708 -12372 -12705 0
-12711 12379 0
-12711 12708 0
12711 -12379 -12708 0
-12714 12386 0
-12714 12711 0
12714 -12386 -12711 0
-12717 12393 0
-12717 12714 0
12717 -12393 -12714 0
-12720 12400 0
-12720 12717 0
12720 -12400 -12717 0
-12723 12407 0
-12723 12720 0
12723 -12407 -12720 0
-12726 12414 0
-12726 12723 0
12726 -12414 -12723 0
-12729 12421 0
-12729 12726 0
12729 -12421 -12726 0
-12732 12428 0
-12732 12729 0
12732 -12428 -12729 0
-12735 12435 0
-12735 12732 0
12735 -12435 -12732 0
-12738 12442 0
-12738 12735 0
12738 -12442 -12735 0
-12741 12449 0
-12741 12738 0
12741 -12449 -12738 0
-12744 12456 0
-12744 12741 0
12744 -12456 -12741 0
-12747 12463 0
-12747 12744 0
12747 -12463 -12744 0
-12750 12470 0
-12750 12747 0
12750 -12470 -12747 0
-12753 12477 0
-12753 12750 0
12753 -12477 -12750 0
-12756 12484 0
-12756 12753 0
12756 -12484 -12753 0
-12759 12491 0
-12759 12756 0
12759 -12491 -12756 0
-12762 12498 0
-12762 12759 0
12762 -12498 -12759 0
-12765 12505 0
-12765 12762 0
12765 -12505 -12762 0
-12768 12512 0
-12768 12765 0
12768 -12512 -12765 0
-12771 12519 0
-12771 12768 0
12771 -12519 -12768 0
-12774 12526 0
-12774 12771 0
12774 -12526 -12771 0
-12777 12533 0
-12777 12774 0
12777 -12533 -12774 0
-12780 12540 0
-12780 12777 0
12780 -12540 -12777 0
-12783 12547 0
-12783 12780 0
12783 -12547 -12780 0
-12786 12554 0
-12786 12783 0
12786 -12554 -12783 0
-12789 12561 0
-12789 12786 0
12789 -12561 -12786 0
-12792 12568 0
-12792 12789 0
12792 -12568 -12789 0
-12795 12575 0
-12795 12792 0
12795 -12575 -12792 0
-12798 12582 0
-12798 12795 0
12798 -12582 -12795 0
-12801 12589 0
-12801 12798 0
12801 -12589 -12798 0
-12804 12596 0
-12804 12801 0
12804 -12596 -12801 0
-12807 12603 0
-12807 12804 0
12807 -12603 -12804 0
-12810 12610 0
-12810 12807 0
12810 -12610 -12807 0
-12813 12617 0
-12813 12810 0
12813 -12617 -12810 0
-12816 12624 0
-12816 12813 0
12816 -12624 -12813 0
-12819 12631 0
-12819 12816 0
12819 -12631 -12816 0
-12820 -12631 0
-12820 -12816 0
12820 12631 12816 0
-12821 -12819 0
-12821 -12820 0
12821 12819 12820 0
-13008 12194 0
-13008 -12821 0
13008 -12194 12821 0
-13009 -12194 0
-13009 12821 0
13009 12194 -12821 0
-13010 -13008 0
-13010 -13009 0
13010 13008 13009 0
12193 -17383 0
-12193 17383 0
-12817 -12624 0
-12817 -12813 0
12817 12624 12813 0
-12818 -12816 0
-12818 -12817 0
12818 12816 12817 0
-13005 12193 0
-13005 -12818 0
13005 -12193 12818 0
-13006 -12193 0
-13006 12818 0
13006 12193 -12818 0
-13007 -13005 0
-13007 -13006 0
13007 13005 13006 0
12192 -17382 0
-12192 17382 0
-12814 -12617 0
-12814 -12810 0
12814 12617 12810 0
-12815 -12813 0
-12815 -12814 0
12815 12813 12814 0
-13002 12192 0
-13002 -12815 0
13002 -12192 12815 0
-13003 -12192 0
-13003 12815 0
13003 12192 -12815 0
-13004 -13002 0
-13004 -13003 0
13004 13002 13003 0
12191 -17381 0
-12191 17381 0
-12811 -12610 0
-12811 -12807 0
12811 12610 12807 0
-12812 -12810 0
-12812 -12811 0
12812 12810 12811 0
-12999 12191 0
-12999 -12812 0
12999 -12191 12812 0
-13000 -12191 0
-13000 12812 0
13000 12191 -12812 0
-13001 -12999 0
-13001 -13000 0
13001 12999 13000 0
12190 -17380 0
-12190 17380 0
-12808 -12603 0
-12808 -12804 0
12808 12603 12804 0
-12809 -12807 0
-12809 -12808 0
12809 12807 12808 0
-12996 12190 0
-12996 -12809 0
12996 -12190 12809 0
-12997 -12190 0
-12997 12809 0
12997 12190 -12809 0
-12998 -12996 0
-12998 -12997 0
12998 12996 12997 0
12189 -17379 0
-12189 17379 0
-12805 -12596 0
-12805 -12801 0
12805 12596 12801 0
-12806 -12804 0
-12806 -12805 0
12806 12804 12805 0
-12993 12189 0
-12993 -12806 0
12993 -12189 12806 0
-12994 -12189 0
-12994 12806 0
12994 12189 -12806 0
-12995 -12993 0
-12995 -12994 0
12995 12993 12994 0
12188 -17378 0
-12188 17378 0
-12802 -12589 0
-12802 -12798 0
12802 12589 12798 0
-12803 -12801 0
-12803 -12802 0
12803 12801 12802 0
-12990 12188 0
-12990 -12803 0
12990 -12188 12803 0
-12991 -12188 0
-12991 12803 0
12991 12188 -12803 0
-12992 -12990 0
-12992 -12991 0
12992 12990 12991 0
12187 -17377 0
-12187 17377 0
-12799 -12582 0
-12799 -12795 0
12799 12582 12795 0
-12800 -12798 0
-12800 -12799 0
12800 12798 12799 0
-12987 12187 0
-12987 -12800 0
12987 -12187 12800 0
-12988 -12187 0
-12988 12800 0
12988 12187 -12800 0
-12989 -12987 0
-12989 -12988 0
12989 12987 12988 0
12186 -17376 0
-12186 17376 0
-12796 -12575 0
-12796 -12792 0
12796 12575 12792 0
-12797 -12795 0
-12797 -12796 0
12797 12795 12796 0
-12984 12186 0
-12984 -12797 0
12984 -12186 12797 0
-12985 -12186 0
-12985 12797 0
12985 12186 -12797 0
-12986 -12984 0
-12986 -12985 0
12986 12984 12985 0
12185 -17375 0
-12185 17375 0
-12793 -12568 0
-12793 -12789 0
12793 12568 12789 0
-12794 -12792 0
-12794 -12793 0
12794 12792 12793 0
-12981 12185 0
-12981 -12794 0
12981 -12185 12794 0
-12982 -12185 0
-12982 12794 0
12982 12185 -12794 0
-12983 -12981 0
-12983 -12982 0
12983 12981 12982 0
12184 -17374 0
-12184 17374 0
-12790 -12561 0
-12790 -12786 0
12790 12561 12786 0
-12791 -12789 0
-12791 -12790 0
12791 12789 12790 0
-12978 12184 0
-12978 -12791 0
12978 -12184 12791 0
-12979 -12184 0
-12979 12791 0
12979 12184 -12791 0
-12980 -12978 0
-12980 -12979 0
12980 12978 12979 0
12183 -17373 0
-12183 17373 0
-12787 -12554 0
-12787 -12783 0
12787 12554 12783 0
-12788 -12786 0
-12788 -12787 0
12788 12786 12787 0
-12975 12183 0
-12975 -12788 0
12975 -12183 12788 0
-12976 -12183 0
-12976 12788 0
12976 12183 -12788 0
-12977 -12975 0
-12977 -12976 0
12977 12975 12976 0
12182 -17372 0
-12182 17372 0
-12784 -12547 0
-12784 -12780 0
12784 12547 12780 0
-12785 -12783 0
-12785 -12784 0
12785 12783 12784 0
-12972 12182 0
-12972 -12785 0
12972 -12182 12785 0
-12973 -12182 0
-12973 12785 0
12973 12182 -12785 0
-12974 -12972 0
-12974 -12973 0
12974 12972 12973 0
12181 -17371 0
-12181 17371 0
-12781 -12540 0
-12781 -12777 0
12781 12540 12777 0
-12782 -12780 0
-12782 -12781 0
12782 12780 12781 0
-12969 12181 0
-12969 -12782 0
12969 -12181 12782 0
-12970 -12181 0
-12970 12782 0
12970 12181 -12782 0
-12971 -12969 0
-12971 -12970 0
12971 12969 12970 0
12180 -17370 0
-12180 17370 0
-12778 -12533 0
-12778 -12774 0
12778 12533 12774 0
-12779 -12777 0
-12779 -12778 0
12779 12777 12778 0
-12966 12180 0
-12966 -12779 0
12966 -12180 12779 0
-12967 -12180 0
-12967 12779 0
12967 12180 -12779 0
-12968 -12966 0
-12968 -12967 0
12968 12966 12967 0
12179 -17369 0
-12179 17369 0
-12775 -12526 0
-12775 -12771 0
12775 12526 12771 0
-12776 -12774 0
-12776 -12775 0
12776 12774 12775 0
-12963 12179 0
-12963 -12776 0
12963 -12179 12776 0
-12964 -12179 0
-12964 12776 0
12964 12179 -12776 0
-12965 -12963 0
-12965 -12964 0
12965 12963 12964 0
12178 -17368 0
-12178 17368 0
-12772 -12519 0
-12772 -12768 0
12772 12519 12768 0
-12773 -12771 0
-12773 -12772 0
12773 12771 12772 0
-12960 12178 0
-12960 -12773 0
12960 -12178 12773 0
-12961 -12178 0
-12961 12773 0
12961 12178 -12773 0
-12962 -12960 0
-12962 -12961 0
12962 12960 12961 0
12177 -17367 0
-12177 17367 0
-12769 -12512 0
-12769 -12765 0
12769 12512 12765 0
-12770 -12768 0
-12770 -12769 0
12770 12768 12769 0
-12957 12177 0
-12957 -12770 0
12957 -12177 12770 0
-12958 -12177 0
-12958 12770 0
12958 12177 -12770 0
-12959 -12957 0
-12959 -12958 0
12959 12957 12958 0
12176 -17366 0
-12176 17366 0
-12766 -12505 0
-12766 -12762 0
12766 12505 12762 0
-12767 -12765 0
-12767 -12766 0
12767 12765 12766 0
-12954 12176 0
-12954 -12767 0
12954 -12176 12767 0
-12955 -12176 0
-12955 12767 0
12955 12176 -12767 0
-12956 -12954 0
-12956 -12955 0
12956 12954 12955 0
12175 -17365 0
-12175 17365 0
-12763 -12498 0
-12763 -12759 0
12763 12498 12759 0
-12764 -12762 0
-12764 -12763 0
12764 12762 12763 0
-12951 12175 0
-12951 -12764 0
12951 -12175 12764 0
-12952 -12175 0
-12952 12764 0
12952 12175 -12764 0
-12953 -12951 0
-12953 -12952 0
12953 12951 12952 0
12174 -17364 0
-12174 17364 0
-12760 -12491 0
-12760 -12756 0
12760 12491 12756 0
-12761 -12759 0
-12761 -12760 0
12761 12759 12760 0
-12948 12174 0
-12948 -12761 0
12948 -12174 12761 0
-12949 -12174 0
-12949 12761 0
12949 12174 -12761 0
-12950 -12948 0
-12950 -12949 0
12950 12948 12949 0
12173 -17363 0
-12173 17363 0
-12757 -12484 0
-12757 -12753 0
12757 12484 12753 0
-12758 -12756 0
-12758 -12757 0
12758 12756 12757 0
-12945 12173 0
-12945 -12758 0
12945 -12173 12758 0
-12946 -12173 0
-12946 12758 0
12946 12173 -12758 0
-12947 -12945 0
-12947 -12946 0
12947 12945 12946 0
12172 -17362 0
-12172 17362 0
-12754 -12477 0
-12754 -12750 0
12754 12477 12750 0
-12755 -12753 0
-12755 -12754 0
12755 12753 12754 0
-12942 12172 0
-12942 -12755 0
12942 -12172 12755 0
-12943 -12172 0
-12943 12755 0
12943 12172 -12755 0
-12944 -12942 0
-12944 -12943 0
12944 12942 12943 0
12171 -17361 0
-12171 17361 0
-12751 -12470 0
-12751 -12747 0
12751 12470 12747 0
-12752 -12750 0
-12752 -12751 0
12752 12750 12751 0
-12939 12171 0
-12939 -12752 0
12939 -12171 12752 0
-12940 -12171 0
-12940 12752 0
12940 12171 -12752 0
-12941 -12939 0
-12941 -12940 0
12941 12939 12940 0
12170 -17360 0
-12170 17360 0
-12748 -12463 0
-12748 -12744 0
12748 12463 12744 0
-12749 -12747 0
-12749 -12748 0
12749 12747 12748 0
-12936 12170 0
-12936 -12749 0
12936 -12170 12749 0
-12937 -12170 0
-12937 12749 0
12937 12170 -12749 0
-12938 -12936 0
-12938 -12937 0
12938 12936 12937 0
12169 -17359 0
-12169 17359 0
-12745 -12456 0
-12745 -12741 0
12745 12456 12741 0
-12746 -12744 0
-12746 -12745 0
12746 12744 12745 0
-12933 12169 0
-12933 -12746 0
12933 -12169 12746 0
-12934 -12169 0
-12934 12746 0
12934 12169 -12746 0
-12935 -12933 0
-12935 -12934 0
12935 12933 12934 0
12168 -17358 0
-12168 17358 0
-12742 -12449 0
-12742 -12738 0
12742 12449 12738 0
-12743 -12741 0
-12743 -12742 0
12743 12741 12742 0
-12930 12168 0
-12930 -12743 0
12930 -12168 12743 0
-12931 -12168 0
-12931 12743 0
12931 12168 -12743 0
-12932 -12930 0
-12932 -12931 0
12932 12930 12931 0
12167 -17357 0
-12167 17357 0
-12739 -12442 0
-12739 -12735 0
12739 12442 12735 0
-12740 -12738 0
-12740 -12739 0
12740 12738 12739 0
-12927 12167 0
-12927 -12740 0
12927 -12167 12740 0
-12928 -12167 0
-12928 12740 0
12928 12167 -12740 0
-12929 -12927 0
-12929 -12928 0
12929 12927 12928 0
12166 -17356 0
-12166 17356 0
-12736 -12435 0
-12736 -12732 0
12736 12435 12732 0
-12737 -12735 0
-12737 -12736 0
12737 12735 12736 0
-12924 12166 0
-12924 -12737 0
12924 -12166 12737 0
-12925 -12166 0
-12925 12737 0
12925 12166 -12737 0
-12926 -12924 0
-12926 -12925 0
12926 12924 12925 0
12165 -17355 0
-12165 17355 0
-12733 -12428 0
-12733 -12729 0
12733 12428 12729 0
-12734 -12732 0
-12734 -12733 0
12734 12732 12733 0
-12921 12165 0
-12921 -12734 0
12921 -12165 12734 0
-12922 -12165 0
-12922 12734 0
12922 12165 -12734 0
-12923 -12921 0
-12923 -12922 0
12923 12921 12922 0
12164 -17354 0
-12164 17354 0
-12730 -12421 0
-12730 -12726 0
12730 12421 12726 0
-12731 -12729 0
-12731 -12730 0
12731 12729 12730 0
-12918 12164 0
-12918 -12731 0
12918 -12164 12731 0
-12919 -12164 0
-12919 12731 0
12919 12164 -12731 0
-12920 -12918 0
-12920 -12919 0
12920 12918 12919 0
12163 -17353 0
-12163 17353 0
-12727 -12414 0
-12727 -12723 0
12727 12414 12723 0
-12728 -12726 0
-12728 -12727 0
12728 12726 12727 0
-12915 12163 0
-12915 -12728 0
12915 -12163 12728 0
-12916 -12163 0
-12916 12728 0
12916 12163 -12728 0
-12917 -12915 0
-12917 -12916 0
12917 12915 12916 0
12162 -17352 0
-12162 17352 0
-12724 -12407 0
-12724 -12720 0
12724 12407 12720 0
-12725 -12723 0
-12725 -12724 0
12725 12723 12724 0
-12912 12162 0
-12912 -12725 0
12912 -12162 12725 0
-12913 -12162 0
-12913 12725 0
12913 12162 -12725 0
-12914 -12912 0
-12914 -12913 0
12914 12912 12913 0
12161 -17351 0
-12161 17351 0
-12721 -12400 0
-12721 -12717 0
12721 12400 12717 0
-12722 -12720 0
-12722 -12721 0
12722 12720 12721 0
-12909 12161 0
-12909 -12722 0
12909 -12161 12722 0
-12910 -12161 0
-12910 12722 0
12910 12161 -12722 0
-12911 -12909 0
-12911 -12910 0
12911 12909 12910 0
12160 -17350 0
-12160 17350 0
-12718 -12393 0
-12718 -12714 0
12718 12393 12714 0
-12719 -12717 0
-12719 -12718 0
12719 12717 12718 0
-12906 12160 0
-12906 -12719 0
12906 -12160 12719 0
-12907 -12160 0
-12907 12719 0
12907 12160 -12719 0
-12908 -12906 0
-12908 -12907 0
12908 12906 12907 0
12159 -17349 0
-12159 17349 0
-12715 -12386 0
-12715 -12711 0
12715 12386 12711 0
-12716 -12714 0
-12716 -12715 0
12716 12714 12715 0
-12903 12159 0
-12903 -12716 0
12903 -12159 12716 0
-12904 -12159 0
-12904 12716 0
12904 12159 -12716 0
-12905 -12903 0
-12905 -12904 0
12905 12903 12904 0
12158 -17348 0
-12158 17348 0
-12712 -12379 0
-12712 -12708 0
12712 12379 12708 0
-12713 -12711 0
-12713 -12712 0
12713 12711 12712 0
-12900 12158 0
-12900 -12713 0
12900 -12158 12713 0
-12901 -12158 0
-12901 12713 0
12901 12158 -12713 0
-12902 -12900 0
-12902 -12901 0
12902 12900 12901 0
12157 -17347 0
-12157 17347 0
-12709 -12372 0
-12709 -12705 0
12709 12372 12705 0
-12710 -12708 0
-12710 -12709 0
12710 12708 12709 0
-12897 12157 0
-12897 -12710 0
12897 -12157 12710 0
-12898 -12157 0
-12898 12710 0
12898 12157 -12710 0
-12899 -12897 0
-12899 -12898 0
12899 12897 12898 0
12156 -17346 0
-12156 17346 0
-12706 -12365 0
-12706 -12702 0
12706 12365 12702 0
-12707 -12705 0
-12707 -12706 0
12707 12705 12706 0
-12894 12156 0
-12894 -12707 0
12894 -12156 12707 0
-12895 -12156 0
-12895 12707 0
12895 12156 -12707 0
-12896 -12894 0
-12896 -12895 0
12896 12894 12895 0
12155 -17345 0
-12155 17345 0
-12703 -12358 0
-12703 -12699 0
12703 12358 12699 0
-12704 -12702 0
-12704 -12703 0
12704 12702 12703 0
-12891 12155 0
-12891 -12704 0
12891 -12155 12704 0
-12892 -12155 0
-12892 12704 0
12892 12155 -12704 0
-12893 -12891 0
-12893 -12892 0
12893 12891 12892 0
12154 -17344 0
-12154 17344 0
-12700 -12351 0
-12700 -12696 0
12700 12351 12696 0
-12701 -12699 0
-12701 -12700 0
12701 12699 12700 0
-12888 12154 0
-12888 -12701 0
12888 -12154 12701 0
-12889 -12154 0
-12889 12701 0
12889 12154 -12701 0
-12890 -12888 0
-12890 -12889 0
12890 12888 12889 0
12153 -17343 0
-12153 17343 0
-12697 -12344 0
-12697 -12693 0
12697 12344 12693 0
-12698 -12696 0
-12698 -12697 0
12698 12696 12697 0
-12885 12153 0
-12885 -12698 0
12885 -12153 12698 0
-12886 -12153 0
-12886 12698 0
12886 12153 -12698 0
-12887 -12885 0
-12887 -12886 0
12887 12885 12886 0
12152 -17342 0
-12152 17342 0
-12694 -12337 0
-12694 -12690 0
12694 12337 12690 0
-12695 -12693 0
-12695 -12694 0
12695 12693 12694 0
-12882 12152 0
-12882 -12695 0
12882 -12152 12695 0
-12883 -12152 0
-12883 12695 0
12883 12152 -12695 0
-12884 -12882 0
-12884 -12883 0
12884 12882 12883 0
12151 -17341 0
-12151 17341 0
-12691 -12330 0
-12691 -12687 0
12691 12330 12687 0
-12692 -12690 0
-12692 -12691 0
12692 12690 12691 0
-12879 12151 0
-12879 -12692 0
12879 -12151 12692 0
-12880 -12151 0
-12880 12692 0
12880 12151 -12692 0
-12881 -12879 0
-12881 -12880 0
12881 12879 12880 0
12150 -17340 0
-12150 17340 0
-12688 -12323 0
-12688 -12684 0
12688 12323 12684 0
-12689 -12687 0
-12689 -12688 0
12689 12687 12688 0
-12876 12150 0
-12876 -12689 0
12876 -12150 12689 0
-12877 -12150 0
-12877 12689 0
12877 12150 -12689 0
-12878 -12876 0
-12878 -12877 0
12878 12876 12877 0
12149 -17339 0
-12149 17339 0
-12685 -12316 0
-12685 -12681 0
12685 12316 12681 0
-12686 -12684 0
-12686 -12685 0
12686 12684 12685 0
-12873 12149 0
-12873 -12686 0
12873 -12149 12686 0
-12874 -12149 0
-12874 12686 0
12874 12149 -12686 0
-12875 -12873 0
-12875 -12874 0
12875 12873 12874 0
12148 -17338 0
-12148 17338 0
-12682 -12309 0
-12682 -12678 0
12682 12309 12678 0
-12683 -12681 0
-12683 -12682 0
12683 12681 12682 0
-12870 12148 0
-12870 -12683 0
12870 -12148 12683 0
-12871 -12148 0
-12871 12683 0
12871 12148 -12683 0
-12872 -12870 0
-12872 -12871 0
12872 12870 12871 0
12147 -17337 0
-12147 17337 0
-12679 -12302 0
-12679 -12675 0
12679 12302 12675 0
-12680 -12678 0
-12680 -12679 0
12680 12678 12679 0
-12867 12147 0
-12867 -12680 0
12867 -12147 12680 0
-12868 -12147 0
-12868 12680 0
12868 12147 -12680 0
-12869 -12867 0
-12869 -12868 0
12869 12867 12868 0
12146 -17336 0
-12146 17336 0
-12676 -12295 0
-12676 -12672 0
12676 12295 12672 0
-12677 -12675 0
-12677 -12676 0
12677 12675 12676 0
-12864 12146 0
-12864 -12677 0
12864 -12146 12677 0
-12865 -12146 0
-12865 12677 0
12865 12146 -12677 0
-12866 -12864 0
-12866 -12865 0
12866 12864 12865 0
12145 -17335 0
-12145 17335 0
-12673 -12288 0
-12673 -12669 0
12673 12288 12669 0
-12674 -12672 0
-12674 -12673 0
12674 12672 12673 0
-12861 12145 0
-12861 -12674 0
12861 -12145 12674 0
-12862 -12145 0
-12862 12674 0
12862 12145 -12674 0
-12863 -12861 0
-12863 -12862 0
12863 12861 12862 0
12144 -17334 0
-12144 17334 0
-12670 -12281 0
-12670 -12666 0
12670 12281 12666 0
-12671 -12669 0
-12671 -12670 0
12671 12669 12670 0
-12858 12144 0
-12858 -12671 0
12858 -12144 12671 0
-12859 -12144 0
-12859 12671 0
12859 12144 -12671 0
-12860 -12858 0
-12860 -12859 0
12860 12858 12859 0
12143 -17333 0
-12143 17333 0
-12667 -12274 0
-12667 -12663 0
12667 12274 12663 0
-12668 -12666 0
-12668 -12667 0
12668 12666 12667 0
-12855 12143 0
-12855 -12668 0
12855 -12143 12668 0
-12856 -12143 0
-12856 12668 0
12856 12143 -12668 0
-12857 -12855 0
-12857 -12856 0
12857 12855 12856 0
12142 -17332 0
-12142 17332 0
-12664 -12267 0
-12664 -12660 0
12664 12267 12660 0
-12665 -12663 0
-12665 -12664 0
12665 12663 12664 0
-12852 12142 0
-12852 -12665 0
12852 -12142 12665 0
-12853 -12142 0
-12853 12665 0
12853 12142 -12665 0
-12854 -12852 0
-12854 -12853 0
12854 12852 12853 0
12141 -17331 0
-12141 17331 0
-12661 -12260 0
-12661 -12657 0
12661 12260 12657 0
-12662 -12660 0
-12662 -12661 0
12662 12660 12661 0
-12849 12141 0
-12849 -12662 0
12849 -12141 12662 0
-12850 -12141 0
-12850 12662 0
12850 12141 -12662 0
-12851 -12849 0
-12851 -12850 0
12851 12849 12850 0
12140 -17330 0
-12140 17330 0
-12658 -12253 0
-12658 -12654 0
12658 12253 12654 0
-12659 -12657 0
-12659 -12658 0
12659 12657 12658 0
-12846 12140 0
-12846 -12659 0
12846 -12140 12659 0
-12847 -12140 0
-12847 12659 0
12847 12140 -12659 0
-12848 -12846 0
-12848 -12847 0
12848 12846 12847 0
12139 -17329 0
-12139 17329 0
-12655 -12246 0
-12655 -12651 0
12655 12246 12651 0
-12656 -12654 0
-12656 -12655 0
12656 12654 12655 0
-12843 12139 0
-12843 -12656 0
12843 -12139 12656 0
-12844 -12139 0
-12844 12656 0
12844 12139 -12656 0
-12845 -12843 0
-12845 -12844 0
12845 12843 12844 0
12138 -17328 0
-12138 17328 0
-12652 -12239 0
-12652 -12648 0
12652 12239 12648 0
-12653 -12651 0
-12653 -12652 0
12653 12651 12652 0
-12840 12138 0
-12840 -12653 0
12840 -12138 12653 0
-12841 -12138 0
-12841 12653 0
12841 12138 -12653 0
-12842 -12840 0
-12842 -12841 0
12842 12840 12841 0
12137 -17327 0
-12137 17327 0
-12649 -12232 0
-12649 -12645 0
12649 12232 12645 0
-12650 -12648 0
-12650 -12649 0
12650 12648 12649 0
-12837 12137 0
-12837 -12650 0
12837 -12137 12650 0
-12838 -12137 0
-12838 12650 0
12838 12137 -12650 0
-12839 -12837 0
-12839 -12838 0
12839 12837 12838 0
12136 -17326 0
-12136 17326 0
-12646 -12225 0
-12646 -12642 0
12646 12225 12642 0
-12647 -12645 0
-12647 -12646 0
12647 12645 12646 0
-12834 12136 0
-12834 -12647 0
12834 -12136 12647 0
-12835 -12136 0
-12835 12647 0
12835 12136 -12647 0
-12836 -12834 0
-12836 -12835 0
12836 12834 12835 0
12135 -17325 0
-12135 17325 0
-12643 -12218 0
-12643 -12639 0
12643 12218 12639 0
-12644 -12642 0
-12644 -12643 0
12644 12642 12643 0
-12831 12135 0
-12831 -12644 0
12831 -12135 12644 0
-12832 -12135 0
-12832 12644 0
12832 12135 -12644 0
-12833 -12831 0
-12833 -12832 0
12833 12831 12832 0
12134 -17324 0
-12134 17324 0
-12640 -12211 0
-12640 -12636 0
12640 12211 12636 0
-12641 -12639 0
-12641 -12640 0
12641 12639 12640 0
-12828 12134 0
-12828 -12641 0
12828 -12134 12641 0
-12829 -12134 0
-12829 12641 0
12829 12134 -12641 0
-12830 -12828 0
-12830 -12829 0
12830 12828 12829 0
12132 -17322 0
-12132 17322 0
-12634 -10317 0
-12634 -12198 0
12634 10317 12198 0
-12635 -12633 0
-12635 -12634 0
12635 12633 12634 0
-12822 12132 0
-12822 -12635 0
12822 -12132 12635 0
-12823 -12132 0
-12823 12635 0
12823 12132 -12635 0
-12824 -12822 0
-12824 -12823 0
12824 12822 12823 0
12133 -17323 0
-12133 17323 0
-12637 -12204 0
-12637 -12633 0
12637 12204 12633 0
-12638 -12636 0
-12638 -12637 0
12638 12636 12637 0
-12825 12133 0
-12825 -12638 0
12825 -12133 12638 0
-12826 -12133 0
-12826 12638 0
12826 12133 -12638 0
-12827 -12825 0
-12827 -12826 0
12827 12825 12826 0
-13011 12824 0
-13011 12827 0
13011 -12824 -12827 0
-13012 12830 0
-13012 13011 0
13012 -12830 -13011 0
-13013 12833 0
-13013 13012 0
13013 -12833 -13012 0
-13014 12836 0
-13014 13013 0
13014 -12836 -13013 0
-13015 12839 0
-13015 13014 0
13015 -12839 -13014 0
-13016 12842 0
-13016 13015 0
13016 -12842 -13015 0
-13017 12845 0
-13017 13016 0
13017 -12845 -13016 0
-13018 12848 0
-13018 13017 0
13018 -12848 -13017 0
-13019 12851 0
-13019 13018 0
13019 -12851 -13018 0
-13020 12854 0
-13020 13019 0
13020 -12854 -13019 0
-13021 12857 0
-13021 13020 0
13021 -12857 -13020 0
-13022 12860 0
-13022 13021 0
13022 -12860 -13021 0
-13023 12863 0
-13023 13022 0
13023 -12863 -13022 0
-13024 12866 0
-13024 13023 0
13024 -12866 -13023 0
-13025 12869 0
-13025 13024 0
13025 -12869 -13024 0
-13026 12872 0
-13026 13025 0
13026 -12872 -13025 0
-13027 12875 0
-13027 13026 0
13027 -12875 -13026 0
-13028 12878 0
-13028 13027 0
13028 -12878 -13027 0
-13029 12881 0
-13029 13028 0
13029 -12881 -13028 0
-13030 12884 0
-13030 13029 0
13030 -12884 -13029 0
-13031 12887 0
-13031 13030 0
13031 -12887 -13030 0
-13032 12890 0
-13032 13031 0
13032 -12890 -13031 0
-13033 12893 0
-13033 13032 0
13033 -12893 -13032 0
-13034 12896 0
-13034 13033 0
13034 -12896 -13033 0
-13035 12899 0
-13035 13034 0
13035 -12899 -13034 0
-13036 12902 0
-13036 13035 0
13036 -12902 -13035 0
-13037 12905 0
-13037 13036 0
13037 -12905 -13036 0
-13038 12908 0
-13038 13037 0
13038 -12908 -13037 0
-13039 12911 0
-13039 13038 0
13039 -12911 -13038 0
-13040 12914 0
-13040 13039 0
13040 -12914 -13039 0
-13041 12917 0
-13041 13040 0
13041 -12917 -13040 0
-13042 12920 0
-13042 13041 0
13042 -12920 -13041 0
-13043 12923 0
-13043 13042 0
13043 -12923 -13042 0
-13044 12926 0
-13044 13043 0
13044 -12926 -13043 0
-13045 12929 0
-13045 13044 0
13045 -12929 -13044 0
-13046 12932 0
-13046 13045 0
13046 -12932 -13045 0
-13047 12935 0
-13047 13046 0
13047 -12935 -13046 0
-13048 12938 0
-13048 13047 0
13048 -12938 -13047 0
-13049 12941 0
-13049 13048 0
13049 -12941 -13048 0
-13050 12944 0
-13050 13049 0
13050 -12944 -13049 0
-13051 12947 0
-13051 13050 0
13051 -12947 -13050 0
-13052 12950 0
-13052 13051 0
13052 -12950 -13051 0
-13053 12953 0
-13053 13052 0
13053 -12953 -13052 0
-13054 12956 0
-13054 13053 0
13054 -12956 -13053 0
-13055 12959 0
-13055 13054 0
13055 -12959 -13054 0
-13056 12962 0
-13056 13055 0
13056 -12962 -13055 0
-13057 12965 0
-13057 13056 0
13057 -12965 -13056 0
-13058 12968 0
-13058 13057 0
13058 -12968 -13057 0
-13059 12971 0
-13059 13058 0
13059 -12971 -13058 0
-13060 12974 0
-13060 13059 0
13060 -12974 -13059 0
-13061 12977 0
-13061 13060 0
13061 -12977 -13060 0
-13062 12980 0
-13062 13061 0
13062 -12980 -13061 0
-13063 12983 0
-13063 13062 0
13063 -12983 -13062 0
-13064 12986 0
-13064 13063 0
13064 -12986 -13063 0
-13065 12989 0
-13065 13064 0
13065 -12989 -13064 0
-13066 12992 0
-13066 13065 0
13066 -12992 -13065 0
-13067 12995 0
-13067 13066 0
13067 -12995 -13066 0
-13068 12998 0
-13068 13067 0
13068 -12998 -13067 0
-13069 13001 0
-13069 13068 0
13069 -13001 -13068 0
-13070 13004 0
-13070 13069 0
13070 -13004 -13069 0
-13071 13007 0
-13071 13070 0
13071 -13007 -13070 0
-13072 13010 0
-13072 13071 0
13072 -13010 -13071 0
-13073 -12195 0
-13073 13072 0
13073 12195 -13072 0
-13074 11526 0
-13074 -13073 0
13074 -11526 13073 0
-13075 12131 0
-13075 -13074 0
13075 -12131 13074 0
-13262 -11631 0
-13262 12194 0
13262 11631 -12194 0
-13263 11631 0
-13263 -12194 0
13263 -11631 12194 0
-13264 -13262 0
-13264 -13263 0
13264 13262 13263 0
-13259 -11630 0
-13259 12193 0
13259 11630 -12193 0
-13260 11630 0
-13260 -12193 0
13260 -11630 12193 0
-13261 -13259 0
-13261 -13260 0
13261 13259 13260 0
-13256 -11629 0
-13256 12192 0
13256 11629 -12192 0
-13257 11629 0
-13257 -12192 0
13257 -11629 12192 0
-13258 -13256 0
-13258 -13257 0
13258 13256 13257 0
-13253 -11628 0
-13253 12191 0
13253 11628 -12191 0
-13254 11628 0
-13254 -12191 0
13254 -11628 12191 0
-13255 -13253 0
-13255 -13254 0
13255 13253 13254 0
-13250 -11627 0
-13250 12190 0
13250 11627 -12190 0
-13251 11627 0
-13251 -12190 0
13251 -11627 12190 0
-13252 -13250 0
-13252 -13251 0
13252 13250 13251 0
-13247 -11626 0
-13247 12189 0
13247 11626 -12189 0
-13248 11626 0
-13248 -12189 0
13248 -11626 12189 0
-13249 -13247 0
-13249 -13248 0
13249 13247 13248 0
-13244 -11625 0
-13244 12188 0
13244 11625 -12188 0
-13245 11625 0
-13245 -12188 0
13245 -11625 12188 0
-13246 -13244 0
-13246 -13245 0
13246 13244 13245 0
-13241 -11624 0
-13241 12187 0
13241 11624 -12187 0
-13242 11624 0
-13242 -12187 0
13242 -11624 12187 0
-13243 -13241 0
-13243 -13242 0
13243 13241 13242 0
-13238 -11623 0
-13238 12186 0
13238 11623 -12186 0
-13239 11623 0
-13239 -12186 0
13239 -11623 12186 0
-13240 -13238 0
-13240 -13239 0
13240 13238 13239 0
-13235 -11622 0
-13235 12185 0
13235 11622 -12185 0
-13236 11622 0
-13236 -12185 0
13236 -11622 12185 0
-13237 -13235 0
-13237 -13236 0
13237 13235 13236 0
-13232 -11621 0
-13232 12184 0
13232 11621 -12184 0
-13233 11621 0
-13233 -12184 0
13233 -11621 12184 0
-13234 -13232 0
-13234 -13233 0
13234 13232 13233 0
-13229 -11620 0
-13229 12183 0
13229 11620 -12183 0
-13230 11620 0
-13230 -12183 0
13230 -11620 12183 0
-13231 -13229 0
-13231 -13230 0
13231 13229 13230 0
-13226 -11619 0
-13226 12182 0
13226 11619 -12182 0
-13227 11619 0
-13227 -12182 0
13227 -11619 12182 0
-13228 -13226 0
-13228 -13227 0
13228 13226 13227 0
-13223 -11618 0
-13223 12181 0
13223 11618 -12181 0
-13224 11618 0
-13224 -12181 0
13224 -11618 12181 0
-13225 -13223 0
-13225 -13224 0
13225 13223 13224 0
-13220 -11617 0
-13220 12180 0
13220 11617 -12180 0
-13221 11617 0
-13221 -12180 0
13221 -11617 12180 0
-13222 -13220 0
-13222 -13221 0
13222 13220 13221 0
-13217 -11616 0
-13217 12179 0
13217 11616 -12179 0
-13218 11616 0
-13218 -12179 0
13218 -11616 12179 0
-13219 -13217 0
-13219 -13218 0
13219 13217 13218 0
-13214 -11615 0
-13214 12178 0
13214 11615 -12178 0
-13215 11615 0
-13215 -12178 0
13215 -11615 12178 0
-13216 -13214 0
-13216 -13215 0
13216 13214 13215 0
-13211 -11614 0
-13211 12177 0
13211 11614 -12177 0
-13212 11614 0
-13212 -12177 0
13212 -11614 12177 0
-13213 -13211 0
-13213 -13212 0
13213 13211 13212 0
-13208 -11613 0
-13208 12176 0
13208 11613 -12176 0
-13209 11613 0
-13209 -12176 0
13209 -11613 12176 0
-13210 -13208 0
-13210 -13209 0
13210 13208 13209 0
-13205 -11612 0
-13205 12175 0
13205 11612 -12175 0
-13206 11612 0
-13206 -12175 0
13206 -11612 12175 0
-13207 -13205 0
-13207 -13206 0
13207 13205 13206 0
-13202 -11611 0
-13202 12174 0
13202 11611 -12174 0
-13203 11611 0
-13203 -12174 0
13203 -11611 12174 0
-13204 -13202 0
-13204 -13203 0
13204 13202 13203 0
-13199 -11610 0
-13199 12173 0
13199 11610 -12173 0
-13200 11610 0
-13200 -12173 0
13200 -11610 12173 0
-13201 -13199 0
-13201 -13200 0
13201 13199 13200 0
-13196 -11609 0
-13196 12172 0
13196 11609 -12172 0
-13197 11609 0
-13197 -12172 0
13197 -11609 12172 0
-13198 -13196 0
-13198 -13197 0
13198 13196 13197 0
-13193 -11608 0
-13193 12171 0
13193 11608 -12171 0
-13194 11608 0
-13194 -12171 0
13194 -11608 12171 0
-13195 -13193 0
-13195 -13194 0
13195 13193 13194 0
-13190 -11607 0
-13190 12170 0
13190 11607 -12170 0
-13191 11607 0
-13191 -12170 0
13191 -11607 12170 0
-13192 -13190 0
-13192 -13191 0
13192 13190 13191 0
-13187 -11606 0
-13187 12169 0
13187 11606 -12169 0
-13188 11606 0
-13188 -12169 0
13188 -11606 12169 0
-13189 -13187 0
-13189 -13188 0
13189 13187 13188 0
-13184 -11605 0
-13184 12168 0
13184 11605 -12168 0
-13185 11605 0
-13185 -12168 0
13185 -11605 12168 0
-13186 -13184 0
-13186 -13185 0
13186 13184 13185 0
-13181 -11604 0
-13181 12167 0
13181 11604 -12167 0
-13182 11604 0
-13182 -12167 0
13182 -11604 12167 0
-13183 -13181 0
-13183 -13182 0
13183 13181 13182 0
-13178 -11603 0
-13178 12166 0
13178 11603 -12166 0
-13179 11603 0
-13179 -12166 0
13179 -11603 12166 0
-13180 -13178 0
-13180 -13179 0
13180 13178 13179 0
-13175 -11602 0
-13175 12165 0
13175 11602 -12165 0
-13176 11602 0
-13176 -12165 0
13176 -11602 12165 0
-13177 -13175 0
-13177 -13176 0
13177 13175 13176 0
-13172 -11601 0
-13172 12164 0
13172 11601 -12164 0
-13173 11601 0
-13173 -12164 0
13173 -11601 12164 0
-13174 -13172 0
-13174 -13173 0
13174 13172 13173 0
-13169 -11600 0
-13169 12163 0
13169 11600 -12163 0
-13170 11600 0
-13170 -12163 0
13170 -11600 12163 0
-13171 -13169 0
-13171 -13170 0
13171 13169 13170 0
-13166 -11599 0
-13166 12162 0
13166 11599 -12162 0
-13167 11599 0
-13167 -12162 0
13167 -11599 12162 0
-13168 -13166 0
-13168 -13167 0
13168 13166 13167 0
-13163 -11598 0
-13163 12161 0
13163 11598 -12161 0
-13164 11598 0
-13164 -12161 0
13164 -11598 12161 0
-13165 -13163 0
-13165 -13164 0
13165 13163 13164 0
-13160 -11597 0
-13160 12160 0
13160 11597 -12160 0
-13161 11597 0
-13161 -12160 0
13161 -11597 12160 0
-13162 -13160 0
-13162 -13161 0
13162 13160 13161 0
-13157 -11596 0
-13157 12159 0
13157 11596 -12159 0
-13158 11596 0
-13158 -12159 0
13158 -11596 12159 0
-13159 -13157 0
-13159 -13158 0
13159 13157 13158 0
-13154 -11595 0
-13154 12158 0
13154 11595 -12158 0
-13155 11595 0
-13155 -12158 0
13155 -11595 12158 0
-13156 -13154 0
-13156 -13155 0
13156 13154 13155 0
-13151 -11594 0
-13151 12157 0
13151 11594 -12157 0
-13152 11594 0
-13152 -12157 0
13152 -11594 12157 0
-13153 -13151 0
-13153 -13152 0
13153 13151 13152 0
-13148 -11593 0
-13148 12156 0
13148 11593 -12156 0
-13149 11593 0
-13149 -12156 0
13149 -11593 12156 0
-13150 -13148 0
-13150 -13149 0
13150 13148 13149 0
-13145 -11592 0
-13145 12155 0
13145 11592 -12155 0
-13146 11592 0
-13146 -12155 0
13146 -11592 12155 0
-13147 -13145 0
-13147 -13146 0
13147 13145 13146 0
-13142 -11591 0
-13142 12154 0
13142 11591 -12154 0
-13143 11591 0
-13143 -12154 0
13143 -11591 12154 0
-13144 -13142 0
-13144 -13143 0
13144 13142 13143 0
-13139 -11590 0
-13139 12153 0
13139 11590 -12153 0
-13140 11590 0
-13140 -12153 0
13140 -11590 12153 0
-13141 -13139 0
-13141 -13140 0
13141 13139 13140 0
-13136 -11589 0
-13136 12152 0
13136 11589 -12152 0
-13137 11589 0
-13137 -12152 0
13137 -11589 12152 0
-13138 -13136 0
-13138 -13137 0
13138 13136 13137 0
-13133 -11588 0
-13133 12151 0
13133 11588 -12151 0
-13134 11588 0
-13134 -12151 0
13134 -11588 12151 0
-13135 -13133 0
-13135 -13134 0
13135 13133 13134 0
-13130 -11587 0
-13130 12150 0
13130 11587 -12150 0
-13131 11587 0
-13131 -12150 0
13131 -11587 12150 0
-13132 -13130 0
-13132 -13131 0
13132 13130 13131 0
-13127 -11586 0
-13127 12149 0
13127 11586 -12149 0
-13128 11586 0
-13128 -12149 0
13128 -11586 12149 0
-13129 -13127 0
-13129 -13128 0
13129 13127 13128 0
-13124 -11585 0
-13124 12148 0
13124 11585 -12148 0
-13125 11585 0
-13125 -12148 0
13125 -11585 12148 0
-13126 -13124 0
-13126 -13125 0
13126 13124 13125 0
-13121 -11584 0
-13121 12147 0
13121 11584 -12147 0
-13122 11584 0
-13122 -12147 0
13122 -11584 12147 0
-13123 -13121 0
-13123 -13122 0
13123 13121 13122 0
-13118 -11583 0
-13118 12146 0
13118 11583 -12146 0
-13119 11583 0
-13119 -12146 0
13119 -11583 12146 0
-13120 -13118 0
-13120 -13119 0
13120 13118 13119 0
-13115 -11582 0
-13115 12145 0
13115 11582 -12145 0
-13116 11582 0
-13116 -12145 0
13116 -11582 12145 0
-13117 -13115 0
-13117 -13116 0
13117 13115 13116 0
-13112 -11581 0
-13112 12144 0
13112 11581 -12144 0
-13113 11581 0
-13113 -12144 0
13113 -11581 12144 0
-13114 -13112 0
-13114 -13113 0
13114 13112 13113 0
-13109 -11580 0
-13109 12143 0
13109 11580 -12143 0
-13110 11580 0
-13110 -12143 0
13110 -11580 12143 0
-13111 -13109 0
-13111 -13110 0
13111 13109 13110 0
-13106 -11579 0
-13106 12142 0
13106 11579 -12142 0
-13107 11579 0
-13107 -12142 0
13107 -11579 12142 0
-13108 -13106 0
-13108 -13107 0
13108 13106 13107 0
-13103 -11578 0
-13103 12141 0
13103 11578 -12141 0
-13104 11578 0
-13104 -12141 0
13104 -11578 12141 0
-13105 -13103 0
-13105 -13104 0
13105 13103 13104 0
-13100 -11577 0
-13100 12140 0
13100 11577 -12140 0
-13101 11577 0
-13101 -12140 0
13101 -11577 12140 0
-13102 -13100 0
-13102 -13101 0
13102 13100 13101 0
-13097 -11576 0
-13097 12139 0
13097 11576 -12139 0
-13098 11576 0
-13098 -12139 0
13098 -11576 12139 0
-13099 -13097 0
-13099 -13098 0
13099 13097 13098 0
-13094 -11575 0
-13094 12138 0
13094 11575 -12138 0
-13095 11575 0
-13095 -12138 0
13095 -11575 12138 0
-13096 -13094 0
-13096 -13095 0
13096 13094 13095 0
-13091 -11574 0
-13091 12137 0
13091 11574 -12137 0
-13092 11574 0
-13092 -12137 0
13092 -11574 12137 0
-13093 -13091 0
-13093 -13092 0
13093 13091 13092 0
-13088 -11573 0
-13088 12136 0
13088 11573 -12136 0
-13089 11573 0
-13089 -12136 0
13089 -11573 12136 0
-13090 -13088 0
-13090 -13089 0
13090 13088 13089 0
-13085 -11572 0
-13085 12135 0
13085 11572 -12135 0
-13086 11572 0
-13086 -12135 0
13086 -11572 12135 0
-13087 -13085 0
-13087 -13086 0
13087 13085 13086 0
-13082 -11571 0
-13082 12134 0
13082 11571 -12134 0
-13083 11571 0
-13083 -12134 0
13083 -11571 12134 0
-13084 -13082 0
-13084 -13083 0
13084 13082 13083 0
-13076 -11569 0
-13076 12132 0
13076 11569 -12132 0
-13077 11569 0
-13077 -12132 0
13077 -11569 12132 0
-13078 -13076 0
-13078 -13077 0
13078 13076 13077 0
-13079 -11570 0
-13079 12133 0
13079 11570 -12133 0
-13080 11570 0
-13080 -12133 0
13080 -11570 12133 0
-13081 -13079 0
-13081 -13080 0
13081 13079 13080 0
-13265 13078 0
-13265 13081 0
13265 -13078 -13081 0
-13266 13084 0
-13266 13265 0
13266 -13084 -13265 0
-13267 13087 0
-13267 13266 0
13267 -13087 -13266 0
-13268 13090 0
-13268 13267 0
13268 -13090 -13267 0
-13269 13093 0
-13269 13268 0
13269 -13093 -13268 0
-13270 13096 0
-13270 13269 0
13270 -13096 -13269 0
-13271 13099 0
-13271 13270 0
13271 -13099 -13270 0
-13272 13102 0
-13272 13271 0
13272 -13102 -13271 0
-13273 13105 0
-13273 13272 0
13273 -13105 -13272 0
-13274 13108 0
-13274 13273 0
13274 -13108 -13273 0
-13275 13111 0
-13275 13274 0
13275 -13111 -13274 0
-13276 13114 0
-13276 13275 0
13276 -13114 -13275 0
-13277 13117 0
-13277 13276 0
13277 -13117 -13276 0
-13278 13120 0
-13278 13277 0
13278 -13120 -13277 0
-13279 13123 0
-13279 13278 0
13279 -13123 -13278 0
-13280 13126 0
-13280 13279 0
13280 -13126 -13279 0
-13281 13129 0
-13281 13280 0
13281 -13129 -13280 0
-13282 13132 0
-13282 13281 0
13282 -13132 -13281 0
-13283 13135 0
-13283 13282 0
13283 -13135 -13282 0
-13284 13138 0
-13284 13283 0
13284 -13138 -13283 0
-13285 13141 0
-13285 13284 0
13285 -13141 -13284 0
-13286 13144 0
-13286 13285 0
13286 -13144 -13285 0
-13287 13147 0
-13287 13286 0
13287 -13147 -13286 0
-13288 13150 0
-13288 13287 0
13288 -13150 -13287 0
-13289 13153 0
-13289 13288 0
13289 -13153 -13288 0
-13290 13156 0
-13290 13289 0
13290 -13156 -13289 0
-13291 13159 0
-13291 13290 0
13291 -13159 -13290 0
-13292 13162 0
-13292 13291 0
13292 -13162 -13291 0
-13293 13165 0
-13293 13292 0
13293 -13165 -13292 0
-13294 13168 0
-13294 13293 0
13294 -13168 -13293 0
-13295 13171 0
-13295 13294 0
13295 -13171 -13294 0
-13296 13174 0
-13296 13295 0
13296 -13174 -13295 0
-13297 13177 0
-13297 13296 0
13297 -13177 -13296 0
-13298 13180 0
-13298 13297 0
13298 -13180 -13297 0
-13299 13183 0
-13299 13298 0
13299 -13183 -13298 0
-13300 13186 0
-13300 13299 0
13300 -13186 -13299 0
-13301 13189 0
-13301 13300 0
13301 -13189 -13300 0
-13302 13192 0
-13302 13301 0
13302 -13192 -13301 0
-13303 13195 0
-13303 13302 0
13303 -13195 -13302 0
-13304 13198 0
-13304 13303 0
13304 -13198 -13303 0
-13305 13201 0
-13305 13304 0
13305 -13201 -13304 0
-13306 13204 0
-13306 13305 0
13306 -13204 -13305 0
-13307 13207 0
-13307 13306 0
13307 -13207 -13306 0
-13308 13210 0
-13308 13307 0
13308 -13210 -13307 0
-13309 13213 0
-13309 13308 0
13309 -13213 -13308 0
-13310 13216 0
-13310 13309 0
13310 -13216 -13309 0
-13311 13219 0
-13311 13310 0
13311 -13219 -13310 0
-13312 13222 0
-13312 13311 0
13312 -13222 -13311 0
-13313 13225 0
-13313 13312 0
13313 -13225 -13312 0
-13314 13228 0
-13314 13313 0
13314 -13228 -13313 0
-13315 13231 0
-13315 13314 0
13315 -13231 -13314 0
-13316 13234 0
-13316 13315 0
13316 -13234 -13315 0
-13317 13237 0
-13317 13316 0
13317 -13237 -13316 0
-13318 13240 0
-13318 13317 0
13318 -13240 -13317 0
-13319 13243 0
-13319 13318 0
13319 -13243 -13318 0
-13320 13246 0
-13320 13319 0
13320 -13246 -13319 0
-13321 13249 0
-13321 13320 0
13321 -13249 -13320 0
-13322 13252 0
-13322 13321 0
13322 -13252 -13321 0
-13323 13255 0
-13323 13322 0
13323 -13255 -13322 0
-13324 13258 0
-13324 13323 0
13324 -13258 -13323 0
-13325 13261 0
-13325 13324 0
13325 -13261 -13324 0
-13326 13264 0
-13326 13325 0
13326 -13264 -13325 0
-13327 -12195 0
-13327 13326 0
13327 12195 -13326 0
-13328 -11526 0
-13328 -13327 0
13328 11526 13327 0
-13329 13075 0
-13329 -13328 0
13329 -13075 13328 0
-13516 -31 0
-13516 158 0
13516 31 -158 0
-13511 -30 0
-13511 157 0
13511 30 -157 0
-13506 -29 0
-13506 156 0
13506 29 -156 0
-13501 -28 0
-13501 155 0
13501 28 -155 0
-13496 -27 0
-13496 154 0
13496 27 -154 0
-13491 -26 0
-13491 153 0
13491 26 -153 0
-13486 -25 0
-13486 152 0
13486 25 -152 0
-13481 -24 0
-13481 151 0
13481 24 -151 0
-13476 -23 0
-13476 150 0
13476 23 -150 0
-13471 -22 0
-13471 149 0
13471 22 -149 0
-13466 -21 0
-13466 148 0
13466 21 -148 0
-13461 -20 0
-13461 147 0
13461 20 -147 0
-13456 -19 0
-13456 146 0
13456 19 -146 0
-13451 -18 0
-13451 145 0
13451 18 -145 0
-13446 -17 0
-13446 144 0
13446 17 -144 0
-13441 -16 0
-13441 143 0
13441 16 -143 0
-13436 -15 0
-13436 142 0
13436 15 -142 0
-13431 -14 0
-13431 141 0
13431 14 -141 0
-13426 -13 0
-13426 140 0
13426 13 -140 0
-13421 -12 0
-13421 139 0
13421 12 -139 0
-13416 -11 0
-13416 138 0
13416 11 -138 0
-13411 -10 0
-13411 137 0
13411 10 -137 0
-13406 -9 0
-13406 136 0
13406 9 -136 0
-13401 -8 0
-13401 135 0
13401 8 -135 0
-13396 -7 0
-13396 134 0
13396 7 -134 0
-13391 -6 0
-13391 133 0
13391 6 -133 0
-13386 -5 0
-13386 132 0
13386 5 -132 0
-13381 -4 0
-13381 131 0
13381 4 -131 0
-13376 -3 0
-13376 130 0
13376 3 -130 0
-13372 -2 0
-13372 129 0
13372 2 -129 0
-13373 2 0
-13373 -129 0
13373 -2 129 0
-13374 -13372 0
-13374 -13373 0
13374 13372 13373 0
-13375 -13372 0
-13375 -13374 0
13375 13372 13374 0
-13377 3 0
-13377 -130 0
13377 -3 130 0
-13378 -13376 0
-13378 -13377 0
13378 13376 13377 0
-13379 -13375 0
-13379 13378 0
13379 13375 -13378 0
-13380 -13376 0
-13380 -13379 0
13380 13376 13379 0
-13382 4 0
-13382 -131 0
13382 -4 131 0
-13383 -13381 0
-13383 -13382 0
13383 13381 13382 0
-13384 -13380 0
-13384 13383 0
13384 13380 -13383 0
-13385 -13381 0
-13385 -13384 0
13385 13381 13384 0
-13387 5 0
-13387 -132 0
13387 -5 132 0
-13388 -13386 0
-13388 -13387 0
13388 13386 13387 0
-13389 -13385 0
-13389 13388 0
13389 13385 -13388 0
-13390 -13386 0
-13390 -13389 0
13390 13386 13389 0
-13392 6 0
-13392 -133 0
13392 -6 133 0
-13393 -13391 0
-13393 -13392 0
13393 13391 13392 0
-13394 -13390 0
-13394 13393 0
13394 13390 -13393 0
-13395 -13391 0
-13395 -13394 0
13395 13391 13394 0
-13397 7 0
-13397 -134 0
13397 -7 134 0
-13398 -13396 0
-13398 -13397 0
13398 13396 13397 0
-13399 -13395 0
-13399 13398 0
13399 13395 -13398 0
-13400 -13396 0
-13400 -13399 0
13400 13396 13399 0
-13402 8 0
-13402 -135 0
13402 -8 135 0
-13403 -13401 0
-13403 -13402 0
13403 13401 13402 0
-13404 -13400 0
-13404 13403 0
13404 13400 -13403 0
-13405 -13401 0
-13405 -13404 0
13405 13401 13404 0
-13407 9 0
-13407 -136 0
13407 -9 136 0
-13408 -13406 0
-13408 -13407 0
13408 13406 13407 0
-13409 -13405 0
-13409 13408 0
13409 13405 -13408 0
-13410 -13406 0
-13410 -13409 0
13410 13406 13409 0
-13412 10 0
-13412 -137 0
13412 -10 137 0
-13413 -13411 0
-13413 -13412 0
13413 13411 13412 0
-13414 -13410 0
-13414 13413 0
13414 13410 -13413 0
-13415 -13411 0
-13415 -13414 0
13415 13411 13414 0
-13417 11 0
-13417 -138 0
13417 -11 138 0
-13418 -13416 0
-13418 -13417 0
13418 13416 13417 0
-13419 -13415 0
-13419 13418 0
13419 13415 -13418 0
-13420 -13416 0
-13420 -13419 0
13420 13416 13419 0
-13422 12 0
-13422 -139 0
13422 -12 139 0
-13423 -13421 0
-13423 -13422 0
13423 13421 13422 0
-13424 -13420 0
-13424 13423 0
13424 13420 -13423 0
-13425 -13421 0
-13425 -13424 0
13425 13421 13424 0
-13427 13 0
-13427 -140 0
13427 -13 140 0
-13428 -13426 0
-13428 -13427 0
13428 13426 13427 0
-13429 -13425 0
-13429 13428 0
13429 13425 -13428 0
-13430 -13426 0
-13430 -13429 0
13430 13426 13429 0
-13432 14 0
-13432 -141 0
13432 -14 141 0
-13433 -13431 0
-13433 -13432 0
13433 13431 13432 0
-13434 -13430 0
-13434 13433 0
13434 13430 -13433 0
-13435 -13431 0
-13435 -13434 0
13435 13431 13434 0
-13437 15 0
-13437 -142 0
13437 -15 142 0
-13438 -13436 0
-13438 -13437 0
13438 13436 13437 0
-13439 -13435 0
-13439 13438 0
13439 13435 -13438 0
-13440 -13436 0
-13440 -13439 0
13440 13436 13439 0
-13442 16 0
-13442 -143 0
13442 -16 143 0
-13443 -13441 0
-13443 -13442 0
13443 13441 13442 0
-13444 -13440 0
-13444 13443 0
13444 13440 -13443 0
-13445 -13441 0
-13445 -13444 0
13445 13441 13444 0
-13447 17 0
-13447 -144 0
13447 -17 144 0
-13448 -13446 0
-13448 -13447 0
13448 13446 13447 0
-13449 -13445 0
-13449 13448 0
13449 13445 -13448 0
-13450 -13446 0
-13450 -13449 0
13450 13446 13449 0
-13452 18 0
-13452 -145 0
13452 -18 145 0
-13453 -13451 0
-13453 -13452 0
13453 13451 13452 0
-13454 -13450 0
-13454 13453 0
13454 13450 -13453 0
-13455 -13451 0
-13455 -13454 0
13455 13451 13454 0
-13457 19 0
-13457 -146 0
13457 -19 146 0
-13458 -13456 0
-13458 -13457 0
13458 13456 13457 0
-13459 -13455 0
-13459 13458 0
13459 13455 -13458 0
-13460 -13456 0
-13460 -13459 0
13460 13456 13459 0
-13462 20 0
-13462 -147 0
13462 -20 147 0
-13463 -13461 0
-13463 -13462 0
13463 13461 13462 0
-13464 -13460 0
-13464 13463 0
13464 13460 -13463 0
-13465 -13461 0
-13465 -13464 0
13465 13461 13464 0
-13467 21 0
-13467 -148 0
13467 -21 148 0
-13468 -13466 0
-13468 -13467 0
13468 13466 13467 0
-13469 -13465 0
-13469 13468 0
13469 13465 -13468 0
-13470 -13466 0
-13470 -13469 0
13470 13466 13469 0
-13472 22 0
-13472 -149 0
13472 -22 149 0
-13473 -13471 0
-13473 -13472 0
13473 13471 13472 0
-13474 -13470 0
-13474 13473 0
13474 13470 -13473 0
-13475 -13471 0
-13475 -13474 0
13475 13471 13474 0
-13477 23 0
-13477 -150 0
13477 -23 150 0
-13478 -13476 0
-13478 -13477 0
13478 13476 13477 0
-13479 -13475 0
-13479 13478 0
13479 13475 -13478 0
-13480 -13476 0
-13480 -13479 0
13480 13476 13479 0
-13482 24 0
-13482 -151 0
13482 -24 151 0
-13483 -13481 0
-13483 -13482 0
13483 13481 13482 0
-13484 -13480 0
-13484 13483 0
13484 13480 -13483 0
-13485 -13481 0
-13485 -13484 0
13485 13481 13484 0
-13487 25 0
-13487 -152 0
13487 -25 152 0
-13488 -13486 0
-13488 -13487 0
13488 13486 13487 0
-13489 -13485 0
-13489 13488 0
13489 13485 -13488 0
-13490 -13486 0
-13490 -13489 0
13490 13486 13489 0
-13492 26 0
-13492 -153 0
13492 -26 153 0
-13493 -13491 0
-13493 -13492 0
13493 13491 13492 0
-13494 -13490 0
-13494 13493 0
13494 13490 -13493 0
-13495 -13491 0
-13495 -13494 0
13495 13491 13494 0
-13497 27 0
-13497 -154 0
13497 -27 154 0
-13498 -13496 0
-13498 -13497 0
13498 13496 13497 0
-13499 -13495 0
-13499 13498 0
13499 13495 -13498 0
-13500 -13496 0
-13500 -13499 0
13500 13496 13499 0
-13502 28 0
-13502 -155 0
13502 -28 155 0
-13503 -13501 0
-13503 -13502 0
13503 13501 13502 0
-13504 -13500 0
-13504 13503 0
13504 13500 -13503 0
-13505 -13501 0
-13505 -13504 0
13505 13501 13504 0
-13507 29 0
-13507 -156 0
13507 -29 156 0
-13508 -13506 0
-13508 -13507 0
13508 13506 13507 0
-13509 -13505 0
-13509 13508 0
13509 13505 -13508 0
-13510 -13506 0
-13510 -13509 0
13510 13506 13509 0
-13512 30 0
-13512 -157 0
13512 -30 157 0
-13513 -13511 0
-13513 -13512 0
13513 13511 13512 0
-13514 -13510 0
-13514 13513 0
13514 13510 -13513 0
-13515 -13511 0
-13515 -13514 0
13515 13511 13514 0
-13517 31 0
-13517 -158 0
13517 -31 158 0
-13518 -13516 0
-13518 -13517 0
13518 13516 13517 0
-13519 -13515 0
-13519 13518 0
13519 13515 -13518 0
-13520 -13516 0
-13520 -13519 0
13520 13516 13519 0
-13521 -159 0
-13521 -13520 0
13521 159 13520 0
-13522 -159 0
-13522 -13521 0
13522 159 13521 0
-13523 -160 0
-13523 -13522 0
13523 160 13522 0
-13524 -160 0
-13524 -13523 0
13524 160 13523 0
-13525 -161 0
-13525 -13524 0
13525 161 13524 0
-13526 -161 0
-13526 -13525 0
13526 161 13525 0
-13527 -162 0
-13527 -13526 0
13527 162 13526 0
-13528 -162 0
-13528 -13527 0
13528 162 13527 0
-13529 -163 0
-13529 -13528 0
13529 163 13528 0
-13530 -163 0
-13530 -13529 0
13530 163 13529 0
-13531 -164 0
-13531 -13530 0
13531 164 13530 0
-13532 -164 0
-13532 -13531 0
13532 164 13531 0
-13533 -165 0
-13533 -13532 0
13533 165 13532 0
-13534 -165 0
-13534 -13533 0
13534 165 13533 0
-13535 -166 0
-13535 -13534 0
13535 166 13534 0
-13536 -166 0
-13536 -13535 0
13536 166 13535 0
-13537 -167 0
-13537 -13536 0
13537 167 13536 0
-13538 -167 0
-13538 -13537 0
13538 167 13537 0
-13539 -168 0
-13539 -13538 0
13539 168 13538 0
-13540 -168 0
-13540 -13539 0
13540 168 13539 0
-13541 -169 0
-13541 -13540 0
13541 169 13540 0
-13542 -169 0
-13542 -13541 0
13542 169 13541 0
-13543 -170 0
-13543 -13542 0
13543 170 13542 0
-13544 -170 0
-13544 -13543 0
13544 170 13543 0
-13545 -171 0
-13545 -13544 0
13545 171 13544 0
-13546 -171 0
-13546 -13545 0
13546 171 13545 0
-13547 -172 0
-13547 -13546 0
13547 172 13546 0
-13548 -172 0
-13548 -13547 0
13548 172 13547 0
-13549 -173 0
-13549 -13548 0
13549 173 13548 0
-13550 -173 0
-13550 -13549 0
13550 173 13549 0
-13551 -174 0
-13551 -13550 0
13551 174 13550 0
-13552 -174 0
-13552 -13551 0
13552 174 13551 0
-13553 -175 0
-13553 -13552 0
13553 175 13552 0
-13554 -175 0
-13554 -13553 0
13554 175 13553 0
-13555 -176 0
-13555 -13554 0
13555 176 13554 0
-13556 -176 0
-13556 -13555 0
13556 176 13555 0
-13557 -177 0
-13557 -13556 0
13557 177 13556 0
-13558 -177 0
-13558 -13557 0
13558 177 13557 0
-13559 -178 0
-13559 -13558 0
13559 178 13558 0
-13560 -178 0
-13560 -13559 0
13560 178 13559 0
-13561 -179 0
-13561 -13560 0
13561 179 13560 0
-13562 -179 0
-13562 -13561 0
13562 179 13561 0
-13563 -180 0
-13563 -13562 0
13563 180 13562 0
-13564 -180 0
-13564 -13563 0
13564 180 13563 0
-13565 -181 0
-13565 -13564 0
13565 181 13564 0
-13566 -181 0
-13566 -13565 0
13566 181 13565 0
-13567 -182 0
-13567 -13566 0
13567 182 13566 0
-13568 -182 0
-13568 -13567 0
13568 182 13567 0
-13569 -183 0
-13569 -13568 0
13569 183 13568 0
-13570 -183 0
-13570 -13569 0
13570 183 13569 0
-13571 -184 0
-13571 -13570 0
13571 184 13570 0
-13572 -184 0
-13572 -13571 0
13572 184 13571 0
-13573 -185 0
-13573 -13572 0
13573 185 13572 0
-13574 -185 0
-13574 -13573 0
13574 185 13573 0
-13575 -186 0
-13575 -13574 0
13575 186 13574 0
-13576 -186 0
-13576 -13575 0
13576 186 13575 0
-13577 -187 0
-13577 -13576 0
13577 187 13576 0
-13578 -187 0
-13578 -13577 0
13578 187 13577 0
-13579 -188 0
-13579 -13578 0
13579 188 13578 0
-13580 -188 0
-13580 -13579 0
13580 188 13579 0
-13581 -189 0
-13581 -13580 0
13581 189 13580 0
-13582 -189 0
-13582 -13581 0
13582 189 13581 0
-13583 -190 0
-13583 -13582 0
13583 190 13582 0
-13584 -190 0
-13584 -13583 0
13584 190 13583 0
-13585 -191 0
-13585 -13584 0
13585 191 13584 0
-13586 -191 0
-13586 -13585 0
13586 191 13585 0
-13587 -192 0
-13587 -13586 0
13587 192 13586 0
-13588 -192 0
-13588 -13587 0
13588 192 13587 0
-13589 -2 0
-13589 -13588 0
13589 2 13588 0
-13590 131 0
-13590 1307 0
13590 -131 -1307 0
-13591 131 0
-13591 -13590 0
13591 -131 13590 0
-13592 -132 0
-13592 -13591 0
13592 132 13591 0
-13593 133 0
-13593 13592 0
13593 -133 -13592 0
-13594 133 0
-13594 -13593 0
13594 -133 13593 0
-13595 -134 0
-13595 -13594 0
13595 134 13594 0
-13596 135 0
-13596 13595 0
13596 -135 -13595 0
-13597 135 0
-13597 -13596 0
13597 -135 13596 0
-13598 -136 0
-13598 -13597 0
13598 136 13597 0
-13599 137 0
-13599 13598 0
13599 -137 -13598 0
-13600 137 0
-13600 -13599 0
13600 -137 13599 0
-13601 -138 0
-13601 -13600 0
13601 138 13600 0
-13602 139 0
-13602 13601 0
13602 -139 -13601 0
-13603 139 0
-13603 -13602 0
13603 -139 13602 0
-13604 -140 0
-13604 -13603 0
13604 140 13603 0
-13605 141 0
-13605 13604 0
13605 -141 -13604 0
-13606 141 0
-13606 -13605 0
13606 -141 13605 0
-13607 -142 0
-13607 -13606 0
13607 142 13606 0
-13608 143 0
-13608 13607 0
13608 -143 -13607 0
-13609 143 0
-13609 -13608 0
13609 -143 13608 0
-13610 -144 0
-13610 -13609 0
13610 144 13609 0
-13611 145 0
-13611 13610 0
13611 -145 -13610 0
-13612 145 0
-13612 -13611 0
13612 -145 13611 0
-13613 -146 0
-13613 -13612 0
13613 146 13612 0
-13614 147 0
-13614 13613 0
13614 -147 -13613 0
-13615 147 0
-13615 -13614 0
13615 -147 13614 0
-13616 -148 0
-13616 -13615 0
13616 148 13615 0
-13617 149 0
-13617 13616 0
13617 -149 -13616 0
-13618 149 0
-13618 -13617 0
13618 -149 13617 0
-13619 -150 0
-13619 -13618 0
13619 150 13618 0
-13620 151 0
-13620 13619 0
13620 -151 -13619 0
-13621 151 0
-13621 -13620 0
13621 -151 13620 0
-13622 -152 0
-13622 -13621 0
13622 152 13621 0
-13623 153 0
-13623 13622 0
13623 -153 -13622 0
-13624 153 0
-13624 -13623 0
13624 -153 13623 0
-13625 -154 0
-13625 -13624 0
13625 154 13624 0
-13626 155 0
-13626 13625 0
13626 -155 -13625 0
-13627 155 0
-13627 -13626 0
13627 -155 13626 0
-13628 -156 0
-13628 -13627 0
13628 156 13627 0
-13629 157 0
-13629 13628 0
13629 -157 -13628 0
-13630 157 0
-13630 -13629 0
13630 -157 13629 0
-13631 -158 0
-13631 -13630 0
13631 158 13630 0
-13632 159 0
-13632 13631 0
13632 -159 -13631 0
-13633 159 0
-13633 -13632 0
13633 -159 13632 0
-13634 -160 0
-13634 -13633 0
13634 160 13633 0
-13635 161 0
-13635 13634 0
13635 -161 -13634 0
-13636 161 0
-13636 -13635 0
13636 -161 13635 0
-13637 -162 0
-13637 -13636 0
13637 162 13636 0
-13638 163 0
-13638 13637 0
13638 -163 -13637 0
-13639 163 0
-13639 -13638 0
13639 -163 13638 0
-13640 -164 0
-13640 -13639 0
13640 164 13639 0
-13641 165 0
-13641 13640 0
13641 -165 -13640 0
-13642 165 0
-13642 -13641 0
13642 -165 13641 0
-13643 -166 0
-13643 -13642 0
13643 166 13642 0
-13644 167 0
-13644 13643 0
13644 -167 -13643 0
-13645 167 0
-13645 -13644 0
13645 -167 13644 0
-13646 -168 0
-13646 -13645 0
13646 168 13645 0
-13647 169 0
-13647 13646 0
13647 -169 -13646 0
-13648 169 0
-13648 -13647 0
13648 -169 13647 0
-13649 -170 0
-13649 -13648 0
13649 170 13648 0
-13650 171 0
-13650 13649 0
13650 -171 -13649 0
-13651 171 0
-13651 -13650 0
13651 -171 13650 0
-13652 -172 0
-13652 -13651 0
13652 172 13651 0
-13653 173 0
-13653 13652 0
13653 -173 -13652 0
-13654 173 0
-13654 -13653 0
13654 -173 13653 0
-13655 -174 0
-13655 -13654 0
13655 174 13654 0
-13656 175 0
-13656 13655 0
13656 -175 -13655 0
-13657 175 0
-13657 -13656 0
13657 -175 13656 0
-13658 -176 0
-13658 -13657 0
13658 176 13657 0
-13659 177 0
-13659 13658 0
13659 -177 -13658 0
-13660 177 0
-13660 -13659 0
13660 -177 13659 0
-13661 -178 0
-13661 -13660 0
13661 178 13660 0
-13662 179 0
-13662 13661 0
13662 -179 -13661 0
-13663 179 0
-13663 -13662 0
13663 -179 13662 0
-13664 -180 0
-13664 -13663 0
13664 180 13663 0
-13665 181 0
-13665 13664 0
13665 -181 -13664 0
-13666 181 0
-13666 -13665 0
13666 -181 13665 0
-13667 -182 0
-13667 -13666 0
13667 182 13666 0
-13668 183 0
-13668 13667 0
13668 -183 -13667 0
-13669 183 0
-13669 -13668 0
13669 -183 13668 0
-13670 -184 0
-13670 -13669 0
13670 184 13669 0
-13671 185 0
-13671 13670 0
13671 -185 -13670 0
-13672 185 0
-13672 -13671 0
13672 -185 13671 0
-13673 -186 0
-13673 -13672 0
13673 186 13672 0
-13674 187 0
-13674 13673 0
13674 -187 -13673 0
-13675 187 0
-13675 -13674 0
13675 -187 13674 0
-13676 -188 0
-13676 -13675 0
13676 188 13675 0
-13677 189 0
-13677 13676 0
13677 -189 -13676 0
-13678 189 0
-13678 -13677 0
13678 -189 13677 0
-13679 -190 0
-13679 -13678 0
13679 190 13678 0
-13680 191 0
-13680 13679 0
13680 -191 -13679 0
-13681 191 0
-13681 -13680 0
13681 -191 13680 0
-13682 -192 0
-13682 -13681 0
13682 192 13681 0
-13683 799 0
-13683 -13682 0
13683 -799 13682 0
-13684 -13589 0
-13684 -13683 0
13684 13589 13683 0
-13737 818 0
-13737 850 0
13737 -818 -850 0
-13730 817 0
-13730 849 0
13730 -817 -849 0
-13723 816 0
-13723 848 0
13723 -816 -848 0
-13716 815 0
-13716 847 0
13716 -815 -847 0
-13709 814 0
-13709 846 0
13709 -814 -846 0
-13702 813 0
-13702 845 0
13702 -813 -845 0
-13695 812 0
-13695 844 0
13695 -812 -844 0
-13688 811 0
-13688 843 0
13688 -811 -843 0
-13685 810 0
-13685 842 0
13685 -810 -842 0
-13689 -811 0
-13689 -843 0
13689 811 843 0
-13690 -13688 0
-13690 -13689 0
13690 13688 13689 0
-13691 13685 0
-13691 13690 0
13691 -13685 -13690 0
-13694 -13688 0
-13694 -13691 0
13694 13688 13691 0
-13696 -812 0
-13696 -844 0
13696 812 844 0
-13697 -13695 0
-13697 -13696 0
13697 13695 13696 0
-13698 -13694 0
-13698 13697 0
13698 13694 -13697 0
-13701 -13695 0
-13701 -13698 0
13701 13695 13698 0
-13703 -813 0
-13703 -845 0
13703 813 845 0
-13704 -13702 0
-13704 -13703 0
13704 13702 13703 0
-13705 -13701 0
-13705 13704 0
13705 13701 -13704 0
-13708 -13702 0
-13708 -13705 0
13708 13702 13705 0
-13710 -814 0
-13710 -846 0
13710 814 846 0
-13711 -13709 0
-13711 -13710 0
13711 13709 13710 0
-13712 -13708 0
-13712 13711 0
13712 13708 -13711 0
-13715 -13709 0
-13715 -13712 0
13715 13709 13712 0
-13717 -815 0
-13717 -847 0
13717 815 847 0
-13718 -13716 0
-13718 -13717 0
13718 13716 13717 0
-13719 -13715 0
-13719 13718 0
13719 13715 -13718 0
-13722 -13716 0
-13722 -13719 0
13722 13716 13719 0
-13724 -816 0
-13724 -848 0
13724 816 848 0
-13725 -13723 0
-13725 -13724 0
13725 13723 13724 0
-13726 -13722 0
-13726 13725 0
13726 13722 -13725 0
-13729 -13723 0
-13729 -13726 0
13729 13723 13726 0
-13731 -817 0
-13731 -849 0
13731 817 849 0
-13732 -13730 0
-13732 -13731 0
13732 13730 13731 0
-13733 -13729 0
-13733 13732 0
13733 13729 -13732 0
-13736 -13730 0
-13736 -13733 0
13736 13730 13733 0
-13738 -818 0
-13738 -850 0
13738 818 850 0
-13739 -13737 0
-13739 -13738 0
13739 13737 13738 0
-13740 -13736 0
-13740 13739 0
13740 13736 -13739 0
-13743 -13737 0
-13743 -13740 0
13743 13737 13740 0
-13744 819 0
-13744 851 0
13744 -819 -851 0
-13745 -819 0
-13745 -851 0
13745 819 851 0
-13746 -13744 0
-13746 -13745 0
13746 13744 13745 0
-13747 -13743 0
-13747 13746 0
13747 13743 -13746 0
-13748 13743 0
-13748 -13746 0
13748 -13743 13746 0
-13749 -13747 0
-13749 -13748 0
13749 13747 13748 0
-13741 13736 0
-13741 -13739 0
13741 -13736 13739 0
-13742 -13740 0
-13742 -13741 0
13742 13740 13741 0
-13734 13729 0
-13734 -13732 0
13734 -13729 13732 0
-13735 -13733 0
-13735 -13734 0
13735 13733 13734 0
-13727 13722 0
-13727 -13725 0
13727 -13722 13725 0
-13728 -13726 0
-13728 -13727 0
13728 13726 13727 0
-13720 13715 0
-13720 -13718 0
13720 -13715 13718 0
-13721 -13719 0
-13721 -13720 0
13721 13719 13720 0
-13713 13708 0
-13713 -13711 0
13713 -13708 13711 0
-13714 -13712 0
-13714 -13713 0
13714 13712 13713 0
-13706 13701 0
-13706 -13704 0
13706 -13701 13704 0
-13707 -13705 0
-13707 -13706 0
13707 13705 13706 0
-13692 -13685 0
-13692 -13690 0
13692 13685 13690 0
-13693 -13691 0
-13693 -13692 0
13693 13691 13692 0
-13699 13694 0
-13699 -13697 0
13699 -13694 13697 0
-13700 -13698 0
-13700 -13699 0
13700 13698 13699 0
-13751 -13693 0
-13751 -13700 0
13751 13693 13700 0
-13752 -13707 0
-13752 13751 0
13752 13707 -13751 0
-13753 -13714 0
-13753 13752 0
13753 13714 -13752 0
-13754 -13721 0
-13754 13753 0
13754 13721 -13753 0
-13755 -13728 0
-13755 13754 0
13755 13728 -13754 0
-13756 -13735 0
-13756 13755 0
13756 13735 -13755 0
-13757 -13742 0
-13757 13756 0
13757 13742 -13756 0
-13758 -13749 0
-13758 13757 0
13758 13749 -13757 0
-13903 -31 0
-13903 1271 0
13903 31 -1271 0
-13898 -30 0
-13898 1270 0
13898 30 -1270 0
-13893 -29 0
-13893 1269 0
13893 29 -1269 0
-13888 -28 0
-13888 1268 0
13888 28 -1268 0
-13883 -27 0
-13883 1267 0
13883 27 -1267 0
-13878 -26 0
-13878 1266 0
13878 26 -1266 0
-13873 -25 0
-13873 1265 0
13873 25 -1265 0
-13868 -24 0
-13868 1264 0
13868 24 -1264 0
-13863 -23 0
-13863 1263 0
13863 23 -1263 0
-13858 -22 0
-13858 1262 0
13858 22 -1262 0
-13853 -21 0
-13853 1261 0
13853 21 -1261 0
-13848 -20 0
-13848 1260 0
13848 20 -1260 0
-13843 -19 0
-13843 1259 0
13843 19 -1259 0
-13838 -18 0
-13838 1258 0
13838 18 -1258 0
-13833 -17 0
-13833 1257 0
13833 17 -1257 0
-13828 -16 0
-13828 1256 0
13828 16 -1256 0
-13823 -15 0
-13823 1255 0
13823 15 -1255 0
-13818 -14 0
-13818 1254 0
13818 14 -1254 0
-13813 -13 0
-13813 1253 0
13813 13 -1253 0
-13808 -12 0
-13808 1252 0
13808 12 -1252 0
-13803 -11 0
-13803 1251 0
13803 11 -1251 0
-13798 -10 0
-13798 1250 0
13798 10 -1250 0
-13793 -9 0
-13793 1249 0
13793 9 -1249 0
-13788 -8 0
-13788 1248 0
13788 8 -1248 0
-13783 -7 0
-13783 1247 0
13783 7 -1247 0
-13778 -6 0
-13778 1246 0
13778 6 -1246 0
-13773 -5 0
-13773 1245 0
13773 5 -1245 0
-13768 -4 0
-13768 1244 0
13768 4 -1244 0
-13763 -3 0
-13763 1243 0
13763 3 -1243 0
-13759 -2 0
-13759 1242 0
13759 2 -1242 0
-13760 2 0
-13760 -1242 0
13760 -2 1242 0
-13761 -13759 0
-13761 -13760 0
13761 13759 13760 0
-13762 -13759 0
-13762 -13761 0
13762 13759 13761 0
-13764 3 0
-13764 -1243 0
13764 -3 1243 0
-13765 -13763 0
-13765 -13764 0
13765 13763 13764 0
-13766 -13762 0
-13766 13765 0
13766 13762 -13765 0
-13767 -13763 0
-13767 -13766 0
13767 13763 13766 0
-13769 4 0
-13769 -1244 0
13769 -4 1244 0
-13770 -13768 0
-13770 -13769 0
13770 13768 13769 0
-13771 -13767 0
-13771 13770 0
13771 13767 -13770 0
-13772 -13768 0
-13772 -13771 0
13772 13768 13771 0
-13774 5 0
-13774 -1245 0
13774 -5 1245 0
-13775 -13773 0
-13775 -13774 0
13775 13773 13774 0
-13776 -13772 0
-13776 13775 0
13776 13772 -13775 0
-13777 -13773 0
-13777 -13776 0
13777 13773 13776 0
-13779 6 0
-13779 -1246 0
13779 -6 1246 0
-13780 -13778 0
-13780 -13779 0
13780 13778 13779 0
-13781 -13777 0
-13781 13780 0
13781 13777 -13780 0
-13782 -13778 0
-13782 -13781 0
13782 13778 13781 0
-13784 7 0
-13784 -1247 0
13784 -7 1247 0
-13785 -13783 0
-13785 -13784 0
13785 13783 13784 0
-13786 -13782 0
-13786 13785 0
13786 13782 -13785 0
-13787 -13783 0
-13787 -13786 0
13787 13783 13786 0
-13789 8 0
-13789 -1248 0
13789 -8 1248 0
-13790 -13788 0
-13790 -13789 0
13790 13788 13789 0
-13791 -13787 0
-13791 13790 0
13791 13787 -13790 0
-13792 -13788 0
-13792 -13791 0
13792 13788 13791 0
-13794 9 0
-13794 -1249 0
13794 -9 1249 0
-13795 -13793 0
-13795 -13794 0
13795 13793 13794 0
-13796 -13792 0
-13796 13795 0
13796 13792 -13795 0
-13797 -13793 0
-13797 -13796 0
13797 13793 13796 0
-13799 10 0
-13799 -1250 0
13799 -10 1250 0
-13800 -13798 0
-13800 -13799 0
13800 13798 13799 0
-13801 -13797 0
-13801 13800 0
13801 13797 -13800 0
-13802 -13798 0
-13802 -13801 0
13802 13798 13801 0
-13804 11 0
-13804 -1251 0
13804 -11 1251 0
-13805 -13803 0
-13805 -13804 0
13805 13803 13804 0
-13806 -13802 0
-13806 13805 0
13806 13802 -13805 0
-13807 -13803 0
-13807 -13806 0
13807 13803 13806 0
-13809 12 0
-13809 -1252 0
13809 -12 1252 0
-13810 -13808 0
-13810 -13809 0
13810 13808 13809 0
-13811 -13807 0
-13811 13810 0
13811 13807 -13810 0
-13812 -13808 0
-13812 -13811 0
13812 13808 13811 0
-13814 13 0
-13814 -1253 0
13814 -13 1253 0
-13815 -13813 0
-13815 -13814 0
13815 13813 13814 0
-13816 -13812 0
-13816 13815 0
13816 13812 -13815 0
-13817 -13813 0
-13817 -13816 0
13817 13813 13816 0
-13819 14 0
-13819 -1254 0
13819 -14 1254 0
-13820 -13818 0
-13820 -13819 0
13820 13818 13819 0
-13821 -13817 0
-13821 13820 0
13821 13817 -13820 0
-13822 -13818 0
-13822 -13821 0
13822 13818 13821 0
-13824 15 0
-13824 -1255 0
13824 -15 1255 0
-13825 -13823 0
-13825 -13824 0
13825 13823 13824 0
-13826 -13822 0
-13826 13825 0
13826 13822 -13825 0
-13827 -13823 0
-13827 -13826 0
13827 13823 13826 0
-13829 16 0
-13829 -1256 0
13829 -16 1256 0
-13830 -13828 0
-13830 -13829 0
13830 13828 13829 0
-13831 -13827 0
-13831 13830 0
13831 13827 -13830 0
-13832 -13828 0
-13832 -13831 0
13832 13828 13831 0
-13834 17 0
-13834 -1257 0
13834 -17 1257 0
-13835 -13833 0
-13835 -13834 0
13835 13833 13834 0
-13836 -13832 0
-13836 13835 0
13836 13832 -13835 0
-13837 -13833 0
-13837 -13836 0
13837 13833 13836 0
-13839 18 0
-13839 -1258 0
13839 -18 1258 0
-13840 -13838 0
-13840 -13839 0
13840 13838 13839 0
-13841 -13837 0
-13841 13840 0
13841 13837 -13840 0
-13842 -13838 0
-13842 -13841 0
13842 13838 13841 0
-13844 19 0
-13844 -1259 0
13844 -19 1259 0
-13845 -13843 0
-13845 -13844 0
13845 13843 13844 0
-13846 -13842 0
-13846 13845 0
13846 13842 -13845 0
-13847 -13843 0
-13847 -13846 0
13847 13843 13846 0
-13849 20 0
-13849 -1260 0
13849 -20 1260 0
-13850 -13848 0
-13850 -13849 0
13850 13848 13849 0
-13851 -13847 0
-13851 13850 0
13851 13847 -13850 0
-13852 -13848 0
-13852 -13851 0
13852 13848 13851 0
-13854 21 0
-13854 -1261 0
13854 -21 1261 0
-13855 -13853 0
-13855 -13854 0
13855 13853 13854 0
-13856 -13852 0
-13856 13855 0
13856 13852 -13855 0
-13857 -13853 0
-13857 -13856 0
13857 13853 13856 0
-13859 22 0
-13859 -1262 0
13859 -22 1262 0
-13860 -13858 0
-13860 -13859 0
13860 13858 13859 0
-13861 -13857 0
-13861 13860 0
13861 13857 -13860 0
-13862 -13858 0
-13862 -13861 0
13862 13858 13861 0
-13864 23 0
-13864 -1263 0
13864 -23 1263 0
-13865 -13863 0
-13865 -13864 0
13865 13863 13864 0
-13866 -13862 0
-13866 13865 0
13866 13862 -13865 0
-13867 -13863 0
-13867 -13866 0
13867 13863 13866 0
-13869 24 0
-13869 -1264 0
13869 -24 1264 0
-13870 -13868 0
-13870 -13869 0
13870 13868 13869 0
-13871 -13867 0
-13871 13870 0
13871 13867 -13870 0
-13872 -13868 0
-13872 -13871 0
13872 13868 13871 0
-13874 25 0
-13874 -1265 0
13874 -25 1265 0
-13875 -13873 0
-13875 -13874 0
13875 13873 13874 0
-13876 -13872 0
-13876 13875 0
13876 13872 -13875 0
-13877 -13873 0
-13877 -13876 0
13877 13873 13876 0
-13879 26 0
-13879 -1266 0
13879 -26 1266 0
-13880 -13878 0
-13880 -13879 0
13880 13878 13879 0
-13881 -13877 0
-13881 13880 0
13881 13877 -13880 0
-13882 -13878 0
-13882 -13881 0
13882 13878 13881 0
-13884 27 0
-13884 -1267 0
13884 -27 1267 0
-13885 -13883 0
-13885 -13884 0
13885 13883 13884 0
-13886 -13882 0
-13886 13885 0
13886 13882 -13885 0
-13887 -13883 0
-13887 -13886 0
13887 13883 13886 0
-13889 28 0
-13889 -1268 0
13889 -28 1268 0
-13890 -13888 0
-13890 -13889 0
13890 13888 13889 0
-13891 -13887 0
-13891 13890 0
13891 13887 -13890 0
-13892 -13888 0
-13892 -13891 0
13892 13888 13891 0
-13894 29 0
-13894 -1269 0
13894 -29 1269 0
-13895 -13893 0
-13895 -13894 0
13895 13893 13894 0
-13896 -13892 0
-13896 13895 0
13896 13892 -13895 0
-13897 -13893 0
-13897 -13896 0
13897 13893 13896 0
-13899 30 0
-13899 -1270 0
13899 -30 1270 0
-13900 -13898 0
-13900 -13899 0
13900 13898 13899 0
-13901 -13897 0
-13901 13900 0
13901 13897 -13900 0
-13902 -13898 0
-13902 -13901 0
13902 13898 13901 0
-13904 31 0
-13904 -1271 0
13904 -31 1271 0
-13905 -13903 0
-13905 -13904 0
13905 13903 13904 0
-13906 -13902 0
-13906 13905 0
13906 13902 -13905 0
-13907 -13903 0
-13907 -13906 0
13907 13903 13906 0
-13908 -1272 0
-13908 -13907 0
13908 1272 13907 0
-13909 -1272 0
-13909 -13908 0
13909 1272 13908 0
-13910 -1273 0
-13910 -13909 0
13910 1273 13909 0
-13911 -1273 0
-13911 -13910 0
13911 1273 13910 0
-13912 -1274 0
-13912 -13911 0
13912 1274 13911 0
-13913 -1274 0
-13913 -13912 0
13913 1274 13912 0
-13914 -1275 0
-13914 -13913 0
13914 1275 13913 0
-13915 -1275 0
-13915 -13914 0
13915 1275 13914 0
-13916 -1276 0
-13916 -13915 0
13916 1276 13915 0
-13917 -1276 0
-13917 -13916 0
13917 1276 13916 0
-13918 -1277 0
-13918 -13917 0
13918 1277 13917 0
-13919 -1277 0
-13919 -13918 0
13919 1277 13918 0
-13920 -1278 0
-13920 -13919 0
13920 1278 13919 0
-13921 -1278 0
-13921 -13920 0
13921 1278 13920 0
-13922 -1279 0
-13922 -13921 0
13922 1279 13921 0
-13923 -1279 0
-13923 -13922 0
13923 1279 13922 0
-13924 -1280 0
-13924 -13923 0
13924 1280 13923 0
-13925 -1280 0
-13925 -13924 0
13925 1280 13924 0
-13926 -1281 0
-13926 -13925 0
13926 1281 13925 0
-13927 -1281 0
-13927 -13926 0
13927 1281 13926 0
-13928 -1282 0
-13928 -13927 0
13928 1282 13927 0
-13929 -1282 0
-13929 -13928 0
13929 1282 13928 0
-13930 -1283 0
-13930 -13929 0
13930 1283 13929 0
-13931 -1283 0
-13931 -13930 0
13931 1283 13930 0
-13932 -1284 0
-13932 -13931 0
13932 1284 13931 0
-13933 -1284 0
-13933 -13932 0
13933 1284 13932 0
-13934 -1285 0
-13934 -13933 0
13934 1285 13933 0
-13935 -1285 0
-13935 -13934 0
13935 1285 13934 0
-13936 -1286 0
-13936 -13935 0
13936 1286 13935 0
-13937 -1286 0
-13937 -13936 0
13937 1286 13936 0
-13938 -1287 0
-13938 -13937 0
13938 1287 13937 0
-13939 -1287 0
-13939 -13938 0
13939 1287 13938 0
-13940 -1288 0
-13940 -13939 0
13940 1288 13939 0
-13941 -1288 0
-13941 -13940 0
13941 1288 13940 0
-13942 -1289 0
-13942 -13941 0
13942 1289 13941 0
-13943 -1289 0
-13943 -13942 0
13943 1289 13942 0
-13944 -1290 0
-13944 -13943 0
13944 1290 13943 0
-13945 -1290 0
-13945 -13944 0
13945 1290 13944 0
-13946 -1291 0
-13946 -13945 0
13946 1291 13945 0
-13947 -1291 0
-13947 -13946 0
13947 1291 13946 0
-13948 -1292 0
-13948 -13947 0
13948 1292 13947 0
-13949 -1292 0
-13949 -13948 0
13949 1292 13948 0
-13950 -1293 0
-13950 -13949 0
13950 1293 13949 0
-13951 -1293 0
-13951 -13950 0
13951 1293 13950 0
-13952 -1294 0
-13952 -13951 0
13952 1294 13951 0
-13953 -1294 0
-13953 -13952 0
13953 1294 13952 0
-13954 -1295 0
-13954 -13953 0
13954 1295 13953 0
-13955 -1295 0
-13955 -13954 0
13955 1295 13954 0
-13956 -1296 0
-13956 -13955 0
13956 1296 13955 0
-13957 -1296 0
-13957 -13956 0
13957 1296 13956 0
-13958 -1297 0
-13958 -13957 0
13958 1297 13957 0
-13959 -1297 0
-13959 -13958 0
13959 1297 13958 0
-13960 -1298 0
-13960 -13959 0
13960 1298 13959 0
-13961 -1298 0
-13961 -13960 0
13961 1298 13960 0
-13962 -1299 0
-13962 -13961 0
13962 1299 13961 0
-13963 -1299 0
-13963 -13962 0
13963 1299 13962 0
-13964 -1300 0
-13964 -13963 0
13964 1300 13963 0
-13965 -1300 0
-13965 -13964 0
13965 1300 13964 0
-13966 -1301 0
-13966 -13965 0
13966 1301 13965 0
-13967 -1301 0
-13967 -13966 0
13967 1301 13966 0
-13968 -1302 0
-13968 -13967 0
13968 1302 13967 0
-13969 -1302 0
-13969 -13968 0
13969 1302 13968 0
-13970 -1303 0
-13970 -13969 0
13970 1303 13969 0
-13971 -1303 0
-13971 -13970 0
13971 1303 13970 0
-13972 -1304 0
-13972 -13971 0
13972 1304 13971 0
-13973 -1304 0
-13973 -13972 0
13973 1304 13972 0
-13974 -1305 0
-13974 -13973 0
13974 1305 13973 0
-13975 -1305 0
-13975 -13974 0
13975 1305 13974 0
-13976 13758 0
-13976 -13975 0
13976 -13758 13975 0
-13977 13684 0
-13977 -13976 0
13977 -13684 13976 0
-13978 1244 0
-13978 3122 0
13978 -1244 -3122 0
-13979 1244 0
-13979 -13978 0
13979 -1244 13978 0
-13980 -1245 0
-13980 -13979 0
13980 1245 13979 0
-13981 1246 0
-13981 13980 0
13981 -1246 -13980 0
-13982 1246 0
-13982 -13981 0
13982 -1246 13981 0
-13983 -1247 0
-13983 -13982 0
13983 1247 13982 0
-13984 1248 0
-13984 13983 0
13984 -1248 -13983 0
-13985 1248 0
-13985 -13984 0
13985 -1248 13984 0
-13986 -1249 0
-13986 -13985 0
13986 1249 13985 0
-13987 1250 0
-13987 13986 0
13987 -1250 -13986 0
-13988 1250 0
-13988 -13987 0
13988 -1250 13987 0
-13989 -1251 0
-13989 -13988 0
13989 1251 13988 0
-13990 1252 0
-13990 13989 0
13990 -1252 -13989 0
-13991 1252 0
-13991 -13990 0
13991 -1252 13990 0
-13992 -1253 0
-13992 -13991 0
13992 1253 13991 0
-13993 1254 0
-13993 13992 0
13993 -1254 -13992 0
-13994 1254 0
-13994 -13993 0
13994 -1254 13993 0
-13995 -1255 0
-13995 -13994 0
13995 1255 13994 0
-13996 1256 0
-13996 13995 0
13996 -1256 -13995 0
-13997 1256 0
-13997 -13996 0
13997 -1256 13996 0
-13998 -1257 0
-13998 -13997 0
13998 1257 13997 0
-13999 1258 0
-13999 13998 0
13999 -1258 -13998 0
-14000 1258 0
-14000 -13999 0
14000 -1258 13999 0
-14001 -1259 0
-14001 -14000 0
14001 1259 14000 0
-14002 1260 0
-14002 14001 0
14002 -1260 -14001 0
-14003 1260 0
-14003 -14002 0
14003 -1260 14002 0
-14004 -1261 0
-14004 -14003 0
14004 1261 14003 0
-14005 1262 0
-14005 14004 0
14005 -1262 -14004 0
-14006 1262 0
-14006 -14005 0
14006 -1262 14005 0
-14007 -1263 0
-14007 -14006 0
14007 1263 14006 0
-14008 1264 0
-14008 14007 0
14008 -1264 -14007 0
-14009 1264 0
-14009 -14008 0
14009 -1264 14008 0
-14010 -1265 0
-14010 -14009 0
14010 1265 14009 0
-14011 1266 0
-14011 14010 0
14011 -1266 -14010 0
-14012 1266 0
-14012 -14011 0
14012 -1266 14011 0
-14013 -1267 0
-14013 -14012 0
14013 1267 14012 0
-14014 1268 0
-14014 14013 0
14014 -1268 -14013 0
-14015 1268 0
-14015 -14014 0
14015 -1268 14014 0
-14016 -1269 0
-14016 -14015 0
14016 1269 14015 0
-14017 1270 0
-14017 14016 0
14017 -1270 -14016 0
-14018 1270 0
-14018 -14017 0
14018 -1270 14017 0
-14019 -1271 0
-14019 -14018 0
14019 1271 14018 0
-14020 1272 0
-14020 14019 0
14020 -1272 -14019 0
-14021 1272 0
-14021 -14020 0
14021 -1272 14020 0
-14022 -1273 0
-14022 -14021 0
14022 1273 14021 0
-14023 1274 0
-14023 14022 0
14023 -1274 -14022 0
-14024 1274 0
-14024 -14023 0
14024 -1274 14023 0
-14025 -1275 0
-14025 -14024 0
14025 1275 14024 0
-14026 1276 0
-14026 14025 0
14026 -1276 -14025 0
-14027 1276 0
-14027 -14026 0
14027 -1276 14026 0
-14028 -1277 0
-14028 -14027 0
14028 1277 14027 0
-14029 1278 0
-14029 14028 0
14029 -1278 -14028 0
-14030 1278 0
-14030 -14029 0
14030 -1278 14029 0
-14031 -1279 0
-14031 -14030 0
14031 1279 14030 0
-14032 1280 0
-14032 14031 0
14032 -1280 -14031 0
-14033 1280 0
-14033 -14032 0
14033 -1280 14032 0
-14034 -1281 0
-14034 -14033 0
14034 1281 14033 0
-14035 1282 0
-14035 14034 0
14035 -1282 -14034 0
-14036 1282 0
-14036 -14035 0
14036 -1282 14035 0
-14037 -1283 0
-14037 -14036 0
14037 1283 14036 0
-14038 1284 0
-14038 14037 0
14038 -1284 -14037 0
-14039 1284 0
-14039 -14038 0
14039 -1284 14038 0
-14040 -1285 0
-14040 -14039 0
14040 1285 14039 0
-14041 1286 0
-14041 14040 0
14041 -1286 -14040 0
-14042 1286 0
-14042 -14041 0
14042 -1286 14041 0
-14043 -1287 0
-14043 -14042 0
14043 1287 14042 0
-14044 1288 0
-14044 14043 0
14044 -1288 -14043 0
-14045 1288 0
-14045 -14044 0
14045 -1288 14044 0
-14046 -1289 0
-14046 -14045 0
14046 1289 14045 0
-14047 1290 0
-14047 14046 0
14047 -1290 -14046 0
-14048 1290 0
-14048 -14047 0
14048 -1290 14047 0
-14049 -1291 0
-14049 -14048 0
14049 1291 14048 0
-14050 1292 0
-14050 14049 0
14050 -1292 -14049 0
-14051 1292 0
-14051 -14050 0
14051 -1292 14050 0
-14052 -1293 0
-14052 -14051 0
14052 1293 14051 0
-14053 1294 0
-14053 14052 0
14053 -1294 -14052 0
-14054 1294 0
-14054 -14053 0
14054 -1294 14053 0
-14055 -1295 0
-14055 -14054 0
14055 1295 14054 0
-14056 1296 0
-14056 14055 0
14056 -1296 -14055 0
-14057 1296 0
-14057 -14056 0
14057 -1296 14056 0
-14058 -1297 0
-14058 -14057 0
14058 1297 14057 0
-14059 1298 0
-14059 14058 0
14059 -1298 -14058 0
-14060 1298 0
-14060 -14059 0
14060 -1298 14059 0
-14061 -1299 0
-14061 -14060 0
14061 1299 14060 0
-14062 1300 0
-14062 14061 0
14062 -1300 -14061 0
-14063 1300 0
-14063 -14062 0
14063 -1300 14062 0
-14064 -1301 0
-14064 -14063 0
14064 1301 14063 0
-14065 1302 0
-14065 14064 0
14065 -1302 -14064 0
-14066 1302 0
-14066 -14065 0
14066 -1302 14065 0
-14067 -1303 0
-14067 -14066 0
14067 1303 14066 0
-14068 1304 0
-14068 14067 0
14068 -1304 -14067 0
-14069 1304 0
-14069 -14068 0
14069 -1304 14068 0
-14070 -1305 0
-14070 -14069 0
14070 1305 14069 0
-14071 2451 0
-14071 -14070 0
14071 -2451 14070 0
-14072 13977 0
-14072 -14071 0
14072 -13977 14071 0
-14125 2470 0
-14125 13742 0
14125 -2470 -13742 0
-14118 2469 0
-14118 13735 0
14118 -2469 -13735 0
-14111 2468 0
-14111 13728 0
14111 -2468 -13728 0
-14104 2467 0
-14104 13721 0
14104 -2467 -13721 0
-14097 2466 0
-14097 13714 0
14097 -2466 -13714 0
-14090 2465 0
-14090 13707 0
14090 -2465 -13707 0
-14083 2464 0
-14083 13700 0
14083 -2464 -13700 0
-14076 2463 0
-14076 13693 0
14076 -2463 -13693 0
-13686 -810 0
-13686 -842 0
13686 810 842 0
-13687 -13685 0
-13687 -13686 0
13687 13685 13686 0
-14073 2462 0
-14073 13687 0
14073 -2462 -13687 0
-14077 -2463 0
-14077 -13693 0
14077 2463 13693 0
-14078 -14076 0
-14078 -14077 0
14078 14076 14077 0
-14079 14073 0
-14079 14078 0
14079 -14073 -14078 0
-14082 -14076 0
-14082 -14079 0
14082 14076 14079 0
-14084 -2464 0
-14084 -13700 0
14084 2464 13700 0
-14085 -14083 0
-14085 -14084 0
14085 14083 14084 0
-14086 -14082 0
-14086 14085 0
14086 14082 -14085 0
-14089 -14083 0
-14089 -14086 0
14089 14083 14086 0
-14091 -2465 0
-14091 -13707 0
14091 2465 13707 0
-14092 -14090 0
-14092 -14091 0
14092 14090 14091 0
-14093 -14089 0
-14093 14092 0
14093 14089 -14092 0
-14096 -14090 0
-14096 -14093 0
14096 14090 14093 0
-14098 -2466 0
-14098 -13714 0
14098 2466 13714 0
-14099 -14097 0
-14099 -14098 0
14099 14097 14098 0
-14100 -14096 0
-14100 14099 0
14100 14096 -14099 0
-14103 -14097 0
-14103 -14100 0
14103 14097 14100 0
-14105 -2467 0
-14105 -13721 0
14105 2467 13721 0
-14106 -14104 0
-14106 -14105 0
14106 14104 14105 0
-14107 -14103 0
-14107 14106 0
14107 14103 -14106 0
-14110 -14104 0
-14110 -14107 0
14110 14104 14107 0
-14112 -2468 0
-14112 -13728 0
14112 2468 13728 0
-14113 -14111 0
-14113 -14112 0
14113 14111 14112 0
-14114 -14110 0
-14114 14113 0
14114 14110 -14113 0
-14117 -14111 0
-14117 -14114 0
14117 14111 14114 0
-14119 -2469 0
-14119 -13735 0
14119 2469 13735 0
-14120 -14118 0
-14120 -14119 0
14120 14118 14119 0
-14121 -14117 0
-14121 14120 0
14121 14117 -14120 0
-14124 -14118 0
-14124 -14121 0
14124 14118 14121 0
-14126 -2470 0
-14126 -13742 0
14126 2470 13742 0
-14127 -14125 0
-14127 -14126 0
14127 14125 14126 0
-14128 -14124 0
-14128 14127 0
14128 14124 -14127 0
-14131 -14125 0
-14131 -14128 0
14131 14125 14128 0
-14132 2471 0
-14132 13749 0
14132 -2471 -13749 0
-14133 -2471 0
-14133 -13749 0
14133 2471 13749 0
-14134 -14132 0
-14134 -14133 0
14134 14132 14133 0
-14135 -14131 0
-14135 14134 0
14135 14131 -14134 0
-14136 14131 0
-14136 -14134 0
14136 -14131 14134 0
-14137 -14135 0
-14137 -14136 0
14137 14135 14136 0
-14129 14124 0
-14129 -14127 0
14129 -14124 14127 0
-14130 -14128 0
-14130 -14129 0
14130 14128 14129 0
-14122 14117 0
-14122 -14120 0
14122 -14117 14120 0
-14123 -14121 0
-14123 -14122 0
14123 14121 14122 0
-14115 14110 0
-14115 -14113 0
14115 -14110 14113 0
-14116 -14114 0
-14116 -14115 0
14116 14114 14115 0
-14108 14103 0
-14108 -14106 0
14108 -14103 14106 0
-14109 -14107 0
-14109 -14108 0
14109 14107 14108 0
-14101 14096 0
-14101 -14099 0
14101 -14096 14099 0
-14102 -14100 0
-14102 -14101 0
14102 14100 14101 0
-14094 14089 0
-14094 -14092 0
14094 -14089 14092 0
-14095 -14093 0
-14095 -14094 0
14095 14093 14094 0
-14080 -14073 0
-14080 -14078 0
14080 14073 14078 0
-14081 -14079 0
-14081 -14080 0
14081 14079 14080 0
-14087 14082 0
-14087 -14085 0
14087 -14082 14085 0
-14088 -14086 0
-14088 -14087 0
14088 14086 14087 0
-14139 -14081 0
-14139 -14088 0
14139 14081 14088 0
-14140 -14095 0
-14140 14139 0
14140 14095 -14139 0
-14141 -14102 0
-14141 14140 0
14141 14102 -14140 0
-14142 -14109 0
-14142 14141 0
14142 14109 -14141 0
-14143 -14116 0
-14143 14142 0
14143 14116 -14142 0
-14144 -14123 0
-14144 14143 0
14144 14123 -14143 0
-14145 -14130 0
-14145 14144 0
14145 14130 -14144 0
-14146 -14137 0
-14146 14145 0
14146 14137 -14145 0
-14291 -31 0
-14291 3086 0
14291 31 -3086 0
-14286 -30 0
-14286 3085 0
14286 30 -3085 0
-14281 -29 0
-14281 3084 0
14281 29 -3084 0
-14276 -28 0
-14276 3083 0
14276 28 -3083 0
-14271 -27 0
-14271 3082 0
14271 27 -3082 0
-14266 -26 0
-14266 3081 0
14266 26 -3081 0
-14261 -25 0
-14261 3080 0
14261 25 -3080 0
-14256 -24 0
-14256 3079 0
14256 24 -3079 0
-14251 -23 0
-14251 3078 0
14251 23 -3078 0
-14246 -22 0
-14246 3077 0
14246 22 -3077 0
-14241 -21 0
-14241 3076 0
14241 21 -3076 0
-14236 -20 0
-14236 3075 0
14236 20 -3075 0
-14231 -19 0
-14231 3074 0
14231 19 -3074 0
-14226 -18 0
-14226 3073 0
14226 18 -3073 0
-14221 -17 0
-14221 3072 0
14221 17 -3072 0
-14216 -16 0
-14216 3071 0
14216 16 -3071 0
-14211 -15 0
-14211 3070 0
14211 15 -3070 0
-14206 -14 0
-14206 3069 0
14206 14 -3069 0
-14201 -13 0
-14201 3068 0
14201 13 -3068 0
-14196 -12 0
-14196 3067 0
14196 12 -3067 0
-14191 -11 0
-14191 3066 0
14191 11 -3066 0
-14186 -10 0
-14186 3065 0
14186 10 -3065 0
-14181 -9 0
-14181 3064 0
14181 9 -3064 0
-14176 -8 0
-14176 3063 0
14176 8 -3063 0
-14171 -7 0
-14171 3062 0
14171 7 -3062 0
-14166 -6 0
-14166 3061 0
14166 6 -3061 0
-14161 -5 0
-14161 3060 0
14161 5 -3060 0
-14156 -4 0
-14156 3059 0
14156 4 -3059 0
-14151 -3 0
-14151 3058 0
14151 3 -3058 0
-14147 -2 0
-14147 3057 0
14147 2 -3057 0
-14148 2 0
-14148 -3057 0
14148 -2 3057 0
-14149 -14147 0
-14149 -14148 0
14149 14147 14148 0
-14150 -14147 0
-14150 -14149 0
14150 14147 14149 0
-14152 3 0
-14152 -3058 0
14152 -3 3058 0
-14153 -14151 0
-14153 -14152 0
14153 14151 14152 0
-14154 -14150 0
-14154 14153 0
14154 14150 -14153 0
-14155 -14151 0
-14155 -14154 0
14155 14151 14154 0
-14157 4 0
-14157 -3059 0
14157 -4 3059 0
-14158 -14156 0
-14158 -14157 0
14158 14156 14157 0
-14159 -14155 0
-14159 14158 0
14159 14155 -14158 0
-14160 -14156 0
-14160 -14159 0
14160 14156 14159 0
-14162 5 0
-14162 -3060 0
14162 -5 3060 0
-14163 -14161 0
-14163 -14162 0
14163 14161 14162 0
-14164 -14160 0
-14164 14163 0
14164 14160 -14163 0
-14165 -14161 0
-14165 -14164 0
14165 14161 14164 0
-14167 6 0
-14167 -3061 0
14167 -6 3061 0
-14168 -14166 0
-14168 -14167 0
14168 14166 14167 0
-14169 -14165 0
-14169 14168 0
14169 14165 -14168 0
-14170 -14166 0
-14170 -14169 0
14170 14166 14169 0
-14172 7 0
-14172 -3062 0
14172 -7 3062 0
-14173 -14171 0
-14173 -14172 0
14173 14171 14172 0
-14174 -14170 0
-14174 14173 0
14174 14170 -14173 0
-14175 -14171 0
-14175 -14174 0
14175 14171 14174 0
-14177 8 0
-14177 -3063 0
14177 -8 3063 0
-14178 -14176 0
-14178 -14177 0
14178 14176 14177 0
-14179 -14175 0
-14179 14178 0
14179 14175 -14178 0
-14180 -14176 0
-14180 -14179 0
14180 14176 14179 0
-14182 9 0
-14182 -3064 0
14182 -9 3064 0
-14183 -14181 0
-14183 -14182 0
14183 14181 14182 0
-14184 -14180 0
-14184 14183 0
14184 14180 -14183 0
-14185 -14181 0
-14185 -14184 0
14185 14181 14184 0
-14187 10 0
-14187 -3065 0
14187 -10 3065 0
-14188 -14186 0
-14188 -14187 0
14188 14186 14187 0
-14189 -14185 0
-14189 14188 0
14189 14185 -14188 0
-14190 -14186 0
-14190 -14189 0
14190 14186 14189 0
-14192 11 0
-14192 -3066 0
14192 -11 3066 0
-14193 -14191 0
-14193 -14192 0
14193 14191 14192 0
-14194 -14190 0
-14194 14193 0
14194 14190 -14193 0
-14195 -14191 0
-14195 -14194 0
14195 14191 14194 0
-14197 12 0
-14197 -3067 0
14197 -12 3067 0
-14198 -14196 0
-14198 -14197 0
14198 14196 14197 0
-14199 -14195 0
-14199 14198 0
14199 14195 -14198 0
-14200 -14196 0
-14200 -14199 0
14200 14196 14199 0
-14202 13 0
-14202 -3068 0
14202 -13 3068 0
-14203 -14201 0
-14203 -14202 0
14203 14201 14202 0
-14204 -14200 0
-14204 14203 0
14204 14200 -14203 0
-14205 -14201 0
-14205 -14204 0
14205 14201 14204 0
-14207 14 0
-14207 -3069 0
14207 -14 3069 0
-14208 -14206 0
-14208 -14207 0
14208 14206 14207 0
-14209 -14205 0
-14209 14208 0
14209 14205 -14208 0
-14210 -14206 0
-14210 -14209 0
14210 14206 14209 0
-14212 15 0
-14212 -3070 0
14212 -15 3070 0
-14213 -14211 0
-14213 -14212 0
14213 14211 14212 0
-14214 -14210 0
-14214 14213 0
14214 14210 -14213 0
-14215 -14211 0
-14215 -14214 0
14215 14211 14214 0
-14217 16 0
-14217 -3071 0
14217 -16 3071 0
-14218 -14216 0
-14218 -14217 0
14218 14216 14217 0
-14219 -14215 0
-14219 14218 0
14219 14215 -14218 0
-14220 -14216 0
-14220 -14219 0
14220 14216 14219 0
-14222 17 0
-14222 -3072 0
14222 -17 3072 0
-14223 -14221 0
-14223 -14222 0
14223 14221 14222 0
-14224 -14220 0
-14224 14223 0
14224 14220 -14223 0
-14225 -14221 0
-14225 -14224 0
14225 14221 14224 0
-14227 18 0
-14227 -3073 0
14227 -18 3073 0
-14228 -14226 0
-14228 -14227 0
14228 14226 14227 0
-14229 -14225 0
-14229 14228 0
14229 14225 -14228 0
-14230 -14226 0
-14230 -14229 0
14230 14226 14229 0
-14232 19 0
-14232 -3074 0
14232 -19 3074 0
-14233 -14231 0
-14233 -14232 0
14233 14231 14232 0
-14234 -14230 0
-14234 14233 0
14234 14230 -14233 0
-14235 -14231 0
-14235 -14234 0
14235 14231 14234 0
-14237 20 0
-14237 -3075 0
14237 -20 3075 0
-14238 -14236 0
-14238 -14237 0
14238 14236 14237 0
-14239 -14235 0
-14239 14238 0
14239 14235 -14238 0
-14240 -14236 0
-14240 -14239 0
14240 14236 14239 0
-14242 21 0
-14242 -3076 0
14242 -21 3076 0
-14243 -14241 0
-14243 -14242 0
14243 14241 14242 0
-14244 -14240 0
-14244 14243 0
14244 14240 -14243 0
-14245 -14241 0
-14245 -14244 0
14245 14241 14244 0
-14247 22 0
-14247 -3077 0
14247 -22 3077 0
-14248 -14246 0
-14248 -14247 0
14248 14246 14247 0
-14249 -14245 0
-14249 14248 0
14249 14245 -14248 0
-14250 -14246 0
-14250 -14249 0
14250 14246 14249 0
-14252 23 0
-14252 -3078 0
14252 -23 3078 0
-14253 -14251 0
-14253 -14252 0
14253 14251 14252 0
-14254 -14250 0
-14254 14253 0
14254 14250 -14253 0
-14255 -14251 0
-14255 -14254 0
14255 14251 14254 0
-14257 24 0
-14257 -3079 0
14257 -24 3079 0
-14258 -14256 0
-14258 -14257 0
14258 14256 14257 0
-14259 -14255 0
-14259 14258 0
14259 14255 -14258 0
-14260 -14256 0
-14260 -14259 0
14260 14256 14259 0
-14262 25 0
-14262 -3080 0
14262 -25 3080 0
-14263 -14261 0
-14263 -14262 0
14263 14261 14262 0
-14264 -14260 0
-14264 14263 0
14264 14260 -14263 0
-14265 -14261 0
-14265 -14264 0
14265 14261 14264 0
-14267 26 0
-14267 -3081 0
14267 -26 3081 0
-14268 -14266 0
-14268 -14267 0
14268 14266 14267 0
-14269 -14265 0
-14269 14268 0
14269 14265 -14268 0
-14270 -14266 0
-14270 -14269 0
14270 14266 14269 0
-14272 27 0
-14272 -3082 0
14272 -27 3082 0
-14273 -14271 0
-14273 -14272 0
14273 14271 14272 0
-14274 -14270 0
-14274 14273 0
14274 14270 -14273 0
-14275 -14271 0
-14275 -14274 0
14275 14271 14274 0
-14277 28 0
-14277 -3083 0
14277 -28 3083 0
-14278 -14276 0
-14278 -14277 0
14278 14276 14277 0
-14279 -14275 0
-14279 14278 0
14279 14275 -14278 0
-14280 -14276 0
-14280 -14279 0
14280 14276 14279 0
-14282 29 0
-14282 -3084 0
14282 -29 3084 0
-14283 -14281 0
-14283 -14282 0
14283 14281 14282 0
-14284 -14280 0
-14284 14283 0
14284 14280 -14283 0
-14285 -14281 0
-14285 -14284 0
14285 14281 14284 0
-14287 30 0
-14287 -3085 0
14287 -30 3085 0
-14288 -14286 0
-14288 -14287 0
14288 14286 14287 0
-14289 -14285 0
-14289 14288 0
14289 14285 -14288 0
-14290 -14286 0
-14290 -14289 0
14290 14286 14289 0
-14292 31 0
-14292 -3086 0
14292 -31 3086 0
-14293 -14291 0
-14293 -14292 0
14293 14291 14292 0
-14294 -14290 0
-14294 14293 0
14294 14290 -14293 0
-14295 -14291 0
-14295 -14294 0
14295 14291 14294 0
-14296 -3087 0
-14296 -14295 0
14296 3087 14295 0
-14297 -3087 0
-14297 -14296 0
14297 3087 14296 0
-14298 -3088 0
-14298 -14297 0
14298 3088 14297 0
-14299 -3088 0
-14299 -14298 0
14299 3088 14298 0
-14300 -3089 0
-14300 -14299 0
14300 3089 14299 0
-14301 -3089 0
-14301 -14300 0
14301 3089 14300 0
-14302 -3090 0
-14302 -14301 0
14302 3090 14301 0
-14303 -3090 0
-14303 -14302 0
14303 3090 14302 0
-14304 -3091 0
-14304 -14303 0
14304 3091 14303 0
-14305 -3091 0
-14305 -14304 0
14305 3091 14304 0
-14306 -3092 0
-14306 -14305 0
14306 3092 14305 0
-14307 -3092 0
-14307 -14306 0
14307 3092 14306 0
-14308 -3093 0
-14308 -14307 0
14308 3093 14307 0
-14309 -3093 0
-14309 -14308 0
14309 3093 14308 0
-14310 -3094 0
-14310 -14309 0
14310 3094 14309 0
-14311 -3094 0
-14311 -14310 0
14311 3094 14310 0
-14312 -3095 0
-14312 -14311 0
14312 3095 14311 0
-14313 -3095 0
-14313 -14312 0
14313 3095 14312 0
-14314 -3096 0
-14314 -14313 0
14314 3096 14313 0
-14315 -3096 0
-14315 -14314 0
14315 3096 14314 0
-14316 -3097 0
-14316 -14315 0
14316 3097 14315 0
-14317 -3097 0
-14317 -14316 0
14317 3097 14316 0
-14318 -3098 0
-14318 -14317 0
14318 3098 14317 0
-14319 -3098 0
-14319 -14318 0
14319 3098 14318 0
-14320 -3099 0
-14320 -14319 0
14320 3099 14319 0
-14321 -3099 0
-14321 -14320 0
14321 3099 14320 0
-14322 -3100 0
-14322 -14321 0
14322 3100 14321 0
-14323 -3100 0
-14323 -14322 0
14323 3100 14322 0
-14324 -3101 0
-14324 -14323 0
14324 3101 14323 0
-14325 -3101 0
-14325 -14324 0
14325 3101 14324 0
-14326 -3102 0
-14326 -14325 0
14326 3102 14325 0
-14327 -3102 0
-14327 -14326 0
14327 3102 14326 0
-14328 -3103 0
-14328 -14327 0
14328 3103 14327 0
-14329 -3103 0
-14329 -14328 0
14329 3103 14328 0
-14330 -3104 0
-14330 -14329 0
14330 3104 14329 0
-14331 -3104 0
-14331 -14330 0
14331 3104 14330 0
-14332 -3105 0
-14332 -14331 0
14332 3105 14331 0
-14333 -3105 0
-14333 -14332 0
14333 3105 14332 0
-14334 -3106 0
-14334 -14333 0
14334 3106 14333 0
-14335 -3106 0
-14335 -14334 0
14335 3106 14334 0
-14336 -3107 0
-14336 -14335 0
14336 3107 14335 0
-14337 -3107 0
-14337 -14336 0
14337 3107 14336 0
-14338 -3108 0
-14338 -14337 0
14338 3108 14337 0
-14339 -3108 0
-14339 -14338 0
14339 3108 14338 0
-14340 -3109 0
-14340 -14339 0
14340 3109 14339 0
-14341 -3109 0
-14341 -14340 0
14341 3109 14340 0
-14342 -3110 0
-14342 -14341 0
14342 3110 14341 0
-14343 -3110 0
-14343 -14342 0
14343 3110 14342 0
-14344 -3111 0
-14344 -14343 0
14344 3111 14343 0
-14345 -3111 0
-14345 -14344 0
14345 3111 14344 0
-14346 -3112 0
-14346 -14345 0
14346 3112 14345 0
-14347 -3112 0
-14347 -14346 0
14347 3112 14346 0
-14348 -3113 0
-14348 -14347 0
14348 3113 14347 0
-14349 -3113 0
-14349 -14348 0
14349 3113 14348 0
-14350 -3114 0
-14350 -14349 0
14350 3114 14349 0
-14351 -3114 0
-14351 -14350 0
14351 3114 14350 0
-14352 -3115 0
-14352 -14351 0
14352 3115 14351 0
-14353 -3115 0
-14353 -14352 0
14353 3115 14352 0
-14354 -3116 0
-14354 -14353 0
14354 3116 14353 0
-14355 -3116 0
-14355 -14354 0
14355 3116 14354 0
-14356 -3117 0
-14356 -14355 0
14356 3117 14355 0
-14357 -3117 0
-14357 -14356 0
14357 3117 14356 0
-14358 -3118 0
-14358 -14357 0
14358 3118 14357 0
-14359 -3118 0
-14359 -14358 0
14359 3118 14358 0
-14360 -3119 0
-14360 -14359 0
14360 3119 14359 0
-14361 -3119 0
-14361 -14360 0
14361 3119 14360 0
-14362 -3120 0
-14362 -14361 0
14362 3120 14361 0
-14363 -3120 0
-14363 -14362 0
14363 3120 14362 0
-14364 14146 0
-14364 -14363 0
14364 -14146 14363 0
-14365 14072 0
-14365 -14364 0
14365 -14072 14364 0
-14366 3059 0
-14366 4937 0
14366 -3059 -4937 0
-14367 3059 0
-14367 -14366 0
14367 -3059 14366 0
-14368 -3060 0
-14368 -14367 0
14368 3060 14367 0
-14369 3061 0
-14369 14368 0
14369 -3061 -14368 0
-14370 3061 0
-14370 -14369 0
14370 -3061 14369 0
-14371 -3062 0
-14371 -14370 0
14371 3062 14370 0
-14372 3063 0
-14372 14371 0
14372 -3063 -14371 0
-14373 3063 0
-14373 -14372 0
14373 -3063 14372 0
-14374 -3064 0
-14374 -14373 0
14374 3064 14373 0
-14375 3065 0
-14375 14374 0
14375 -3065 -14374 0
-14376 3065 0
-14376 -14375 0
14376 -3065 14375 0
-14377 -3066 0
-14377 -14376 0
14377 3066 14376 0
-14378 3067 0
-14378 14377 0
14378 -3067 -14377 0
-14379 3067 0
-14379 -14378 0
14379 -3067 14378 0
-14380 -3068 0
-14380 -14379 0
14380 3068 14379 0
-14381 3069 0
-14381 14380 0
14381 -3069 -14380 0
-14382 3069 0
-14382 -14381 0
14382 -3069 14381 0
-14383 -3070 0
-14383 -14382 0
14383 3070 14382 0
-14384 3071 0
-14384 14383 0
14384 -3071 -14383 0
-14385 3071 0
-14385 -14384 0
14385 -3071 14384 0
-14386 -3072 0
-14386 -14385 0
14386 3072 14385 0
-14387 3073 0
-14387 14386 0
14387 -3073 -14386 0
-14388 3073 0
-14388 -14387 0
14388 -3073 14387 0
-14389 -3074 0
-14389 -14388 0
14389 3074 14388 0
-14390 3075 0
-14390 14389 0
14390 -3075 -14389 0
-14391 3075 0
-14391 -14390 0
14391 -3075 14390 0
-14392 -3076 0
-14392 -14391 0
14392 3076 14391 0
-14393 3077 0
-14393 14392 0
14393 -3077 -14392 0
-14394 3077 0
-14394 -14393 0
14394 -3077 14393 0
-14395 -3078 0
-14395 -14394 0
14395 3078 14394 0
-14396 3079 0
-14396 14395 0
14396 -3079 -14395 0
-14397 3079 0
-14397 -14396 0
14397 -3079 14396 0
-14398 -3080 0
-14398 -14397 0
14398 3080 14397 0
-14399 3081 0
-14399 14398 0
14399 -3081 -14398 0
-14400 3081 0
-14400 -14399 0
14400 -3081 14399 0
-14401 -3082 0
-14401 -14400 0
14401 3082 14400 0
-14402 3083 0
-14402 14401 0
14402 -3083 -14401 0
-14403 3083 0
-14403 -14402 0
14403 -3083 14402 0
-14404 -3084 0
-14404 -14403 0
14404 3084 14403 0
-14405 3085 0
-14405 14404 0
14405 -3085 -14404 0
-14406 3085 0
-14406 -14405 0
14406 -3085 14405 0
-14407 -3086 0
-14407 -14406 0
14407 3086 14406 0
-14408 3087 0
-14408 14407 0
14408 -3087 -14407 0
-14409 3087 0
-14409 -14408 0
14409 -3087 14408 0
-14410 -3088 0
-14410 -14409 0
14410 3088 14409 0
-14411 3089 0
-14411 14410 0
14411 -3089 -14410 0
-14412 3089 0
-14412 -14411 0
14412 -3089 14411 0
-14413 -3090 0
-14413 -14412 0
14413 3090 14412 0
-14414 3091 0
-14414 14413 0
14414 -3091 -14413 0
-14415 3091 0
-14415 -14414 0
14415 -3091 14414 0
-14416 -3092 0
-14416 -14415 0
14416 3092 14415 0
-14417 3093 0
-14417 14416 0
14417 -3093 -14416 0
-14418 3093 0
-14418 -14417 0
14418 -3093 14417 0
-14419 -3094 0
-14419 -14418 0
14419 3094 14418 0
-14420 3095 0
-14420 14419 0
14420 -3095 -14419 0
-14421 3095 0
-14421 -14420 0
14421 -3095 14420 0
-14422 -3096 0
-14422 -14421 0
14422 3096 14421 0
-14423 3097 0
-14423 14422 0
14423 -3097 -14422 0
-14424 3097 0
-14424 -14423 0
14424 -3097 14423 0
-14425 -3098 0
-14425 -14424 0
14425 3098 14424 0
-14426 3099 0
-14426 14425 0
14426 -3099 -14425 0
-14427 3099 0
-14427 -14426 0
14427 -3099 14426 0
-14428 -3100 0
-14428 -14427 0
14428 3100 14427 0
-14429 3101 0
-14429 14428 0
14429 -3101 -14428 0
-14430 3101 0
-14430 -14429 0
14430 -3101 14429 0
-14431 -3102 0
-14431 -14430 0
14431 3102 14430 0
-14432 3103 0
-14432 14431 0
14432 -3103 -14431 0
-14433 3103 0
-14433 -14432 0
14433 -3103 14432 0
-14434 -3104 0
-14434 -14433 0
14434 3104 14433 0
-14435 3105 0
-14435 14434 0
14435 -3105 -14434 0
-14436 3105 0
-14436 -14435 0
14436 -3105 14435 0
-14437 -3106 0
-14437 -14436 0
14437 3106 14436 0
-14438 3107 0
-14438 14437 0
14438 -3107 -14437 0
-14439 3107 0
-14439 -14438 0
14439 -3107 14438 0
-14440 -3108 0
-14440 -14439 0
14440 3108 14439 0
-14441 3109 0
-14441 14440 0
14441 -3109 -14440 0
-14442 3109 0
-14442 -14441 0
14442 -3109 14441 0
-14443 -3110 0
-14443 -14442 0
14443 3110 14442 0
-14444 3111 0
-14444 14443 0
14444 -3111 -14443 0
-14445 3111 0
-14445 -14444 0
14445 -3111 14444 0
-14446 -3112 0
-14446 -14445 0
14446 3112 14445 0
-14447 3113 0
-14447 14446 0
14447 -3113 -14446 0
-14448 3113 0
-14448 -14447 0
14448 -3113 14447 0
-14449 -3114 0
-14449 -14448 0
14449 3114 14448 0
-14450 3115 0
-14450 14449 0
14450 -3115 -14449 0
-14451 3115 0
-14451 -14450 0
14451 -3115 14450 0
-14452 -3116 0
-14452 -14451 0
14452 3116 14451 0
-14453 3117 0
-14453 14452 0
14453 -3117 -14452 0
-14454 3117 0
-14454 -14453 0
14454 -3117 14453 0
-14455 -3118 0
-14455 -14454 0
14455 3118 14454 0
-14456 3119 0
-14456 14455 0
14456 -3119 -14455 0
-14457 3119 0
-14457 -14456 0
14457 -3119 14456 0
-14458 -3120 0
-14458 -14457 0
14458 3120 14457 0
-14459 4266 0
-14459 -14458 0
14459 -4266 14458 0
-14460 14365 0
-14460 -14459 0
14460 -14365 14459 0
-14513 4285 0
-14513 14130 0
14513 -4285 -14130 0
-14506 4284 0
-14506 14123 0
14506 -4284 -14123 0
-14499 4283 0
-14499 14116 0
14499 -4283 -14116 0
-14492 4282 0
-14492 14109 0
14492 -4282 -14109 0
-14485 4281 0
-14485 14102 0
14485 -4281 -14102 0
-14478 4280 0
-14478 14095 0
14478 -4280 -14095 0
-14471 4279 0
-14471 14088 0
14471 -4279 -14088 0
-14464 4278 0
-14464 14081 0
14464 -4278 -14081 0
-14074 -2462 0
-14074 -13687 0
14074 2462 13687 0
-14075 -14073 0
-14075 -14074 0
14075 14073 14074 0
-14461 4277 0
-14461 14075 0
14461 -4277 -14075 0
-14465 -4278 0
-14465 -14081 0
14465 4278 14081 0
-14466 -14464 0
-14466 -14465 0
14466 14464 14465 0
-14467 14461 0
-14467 14466 0
14467 -14461 -14466 0
-14470 -14464 0
-14470 -14467 0
14470 14464 14467 0
-14472 -4279 0
-14472 -14088 0
14472 4279 14088 0
-14473 -14471 0
-14473 -14472 0
14473 14471 14472 0
-14474 -14470 0
-14474 14473 0
14474 14470 -14473 0
-14477 -14471 0
-14477 -14474 0
14477 14471 14474 0
-14479 -4280 0
-14479 -14095 0
14479 4280 14095 0
-14480 -14478 0
-14480 -14479 0
14480 14478 14479 0
-14481 -14477 0
-14481 14480 0
14481 14477 -14480 0
-14484 -14478 0
-14484 -14481 0
14484 14478 14481 0
-14486 -4281 0
-14486 -14102 0
14486 4281 14102 0
-14487 -14485 0
-14487 -14486 0
14487 14485 14486 0
-14488 -14484 0
-14488 14487 0
14488 14484 -14487 0
-14491 -14485 0
-14491 -14488 0
14491 14485 14488 0
-14493 -4282 0
-14493 -14109 0
14493 4282 14109 0
-14494 -14492 0
-14494 -14493 0
14494 14492 14493 0
-14495 -14491 0
-14495 14494 0
14495 14491 -14494 0
-14498 -14492 0
-14498 -14495 0
14498 14492 14495 0
-14500 -4283 0
-14500 -14116 0
14500 4283 14116 0
-14501 -14499 0
-14501 -14500 0
14501 14499 14500 0
-14502 -14498 0
-14502 14501 0
14502 14498 -14501 0
-14505 -14499 0
-14505 -14502 0
14505 14499 14502 0
-14507 -4284 0
-14507 -14123 0
14507 4284 14123 0
-14508 -14506 0
-14508 -14507 0
14508 14506 14507 0
-14509 -14505 0
-14509 14508 0
14509 14505 -14508 0
-14512 -14506 0
-14512 -14509 0
14512 14506 14509 0
-14514 -4285 0
-14514 -14130 0
14514 4285 14130 0
-14515 -14513 0
-14515 -14514 0
14515 14513 14514 0
-14516 -14512 0
-14516 14515 0
14516 14512 -14515 0
-14519 -14513 0
-14519 -14516 0
14519 14513 14516 0
-14520 4286 0
-14520 14137 0
14520 -4286 -14137 0
-14521 -4286 0
-14521 -14137 0
14521 4286 14137 0
-14522 -14520 0
-14522 -14521 0
14522 14520 14521 0
-14523 -14519 0
-14523 14522 0
14523 14519 -14522 0
-14524 14519 0
-14524 -14522 0
14524 -14519 14522 0
-14525 -14523 0
-14525 -14524 0
14525 14523 14524 0
-14517 14512 0
-14517 -14515 0
14517 -14512 14515 0
-14518 -14516 0
-14518 -14517 0
14518 14516 14517 0
-14510 14505 0
-14510 -14508 0
14510 -14505 14508 0
-14511 -14509 0
-14511 -14510 0
14511 14509 14510 0
-14503 14498 0
-14503 -14501 0
14503 -14498 14501 0
-14504 -14502 0
-14504 -14503 0
14504 14502 14503 0
-14496 14491 0
-14496 -14494 0
14496 -14491 14494 0
-14497 -14495 0
-14497 -14496 0
14497 14495 14496 0
-14489 14484 0
-14489 -14487 0
14489 -14484 14487 0
-14490 -14488 0
-14490 -14489 0
14490 14488 14489 0
-14482 14477 0
-14482 -14480 0
14482 -14477 14480 0
-14483 -14481 0
-14483 -14482 0
14483 14481 14482 0
-14475 14470 0
-14475 -14473 0
14475 -14470 14473 0
-14476 -14474 0
-14476 -14475 0
14476 14474 14475 0
-14468 -14461 0
-14468 -14466 0
14468 14461 14466 0
-14469 -14467 0
-14469 -14468 0
14469 14467 14468 0
-14462 -4277 0
-14462 -14075 0
14462 4277 14075 0
-14463 -14461 0
-14463 -14462 0
14463 14461 14462 0
-14527 -14463 0
-14527 14469 0
14527 14463 -14469 0
-14528 14469 0
-14528 -14527 0
14528 -14469 14527 0
-14529 -14476 0
-14529 -14528 0
14529 14476 14528 0
-14530 -14483 0
-14530 14529 0
14530 14483 -14529 0
-14531 -14490 0
-14531 14530 0
14531 14490 -14530 0
-14532 -14497 0
-14532 14531 0
14532 14497 -14531 0
-14533 -14504 0
-14533 14532 0
14533 14504 -14532 0
-14534 -14511 0
-14534 14533 0
14534 14511 -14533 0
-14535 -14518 0
-14535 14534 0
14535 14518 -14534 0
-14536 -14525 0
-14536 14535 0
14536 14525 -14535 0
-14681 -31 0
-14681 4901 0
14681 31 -4901 0
-14676 -30 0
-14676 4900 0
14676 30 -4900 0
-14671 -29 0
-14671 4899 0
14671 29 -4899 0
-14666 -28 0
-14666 4898 0
14666 28 -4898 0
-14661 -27 0
-14661 4897 0
14661 27 -4897 0
-14656 -26 0
-14656 4896 0
14656 26 -4896 0
-14651 -25 0
-14651 4895 0
14651 25 -4895 0
-14646 -24 0
-14646 4894 0
14646 24 -4894 0
-14641 -23 0
-14641 4893 0
14641 23 -4893 0
-14636 -22 0
-14636 4892 0
14636 22 -4892 0
-14631 -21 0
-14631 4891 0
14631 21 -4891 0
-14626 -20 0
-14626 4890 0
14626 20 -4890 0
-14621 -19 0
-14621 4889 0
14621 19 -4889 0
-14616 -18 0
-14616 4888 0
14616 18 -4888 0
-14611 -17 0
-14611 4887 0
14611 17 -4887 0
-14606 -16 0
-14606 4886 0
14606 16 -4886 0
-14601 -15 0
-14601 4885 0
14601 15 -4885 0
-14596 -14 0
-14596 4884 0
14596 14 -4884 0
-14591 -13 0
-14591 4883 0
14591 13 -4883 0
-14586 -12 0
-14586 4882 0
14586 12 -4882 0
-14581 -11 0
-14581 4881 0
14581 11 -4881 0
-14576 -10 0
-14576 4880 0
14576 10 -4880 0
-14571 -9 0
-14571 4879 0
14571 9 -4879 0
-14566 -8 0
-14566 4878 0
14566 8 -4878 0
-14561 -7 0
-14561 4877 0
14561 7 -4877 0
-14556 -6 0
-14556 4876 0
14556 6 -4876 0
-14551 -5 0
-14551 4875 0
14551 5 -4875 0
-14546 -4 0
-14546 4874 0
14546 4 -4874 0
-14541 -3 0
-14541 4873 0
14541 3 -4873 0
-14537 -2 0
-14537 4872 0
14537 2 -4872 0
-14538 2 0
-14538 -4872 0
14538 -2 4872 0
-14539 -14537 0
-14539 -14538 0
14539 14537 14538 0
-14540 -14537 0
-14540 -14539 0
14540 14537 14539 0
-14542 3 0
-14542 -4873 0
14542 -3 4873 0
-14543 -14541 0
-14543 -14542 0
14543 14541 14542 0
-14544 -14540 0
-14544 14543 0
14544 14540 -14543 0
-14545 -14541 0
-14545 -14544 0
14545 14541 14544 0
-14547 4 0
-14547 -4874 0
14547 -4 4874 0
-14548 -14546 0
-14548 -14547 0
14548 14546 14547 0
-14549 -14545 0
-14549 14548 0
14549 14545 -14548 0
-14550 -14546 0
-14550 -14549 0
14550 14546 14549 0
-14552 5 0
-14552 -4875 0
14552 -5 4875 0
-14553 -14551 0
-14553 -14552 0
14553 14551 14552 0
-14554 -14550 0
-14554 14553 0
14554 14550 -14553 0
-14555 -14551 0
-14555 -14554 0
14555 14551 14554 0
-14557 6 0
-14557 -4876 0
14557 -6 4876 0
-14558 -14556 0
-14558 -14557 0
14558 14556 14557 0
-14559 -14555 0
-14559 14558 0
14559 14555 -14558 0
-14560 -14556 0
-14560 -14559 0
14560 14556 14559 0
-14562 7 0
-14562 -4877 0
14562 -7 4877 0
-14563 -14561 0
-14563 -14562 0
14563 14561 14562 0
-14564 -14560 0
-14564 14563 0
14564 14560 -14563 0
-14565 -14561 0
-14565 -14564 0
14565 14561 14564 0
-14567 8 0
-14567 -4878 0
14567 -8 4878 0
-14568 -14566 0
-14568 -14567 0
14568 14566 14567 0
-14569 -14565 0
-14569 14568 0
14569 14565 -14568 0
-14570 -14566 0
-14570 -14569 0
14570 14566 14569 0
-14572 9 0
-14572 -4879 0
14572 -9 4879 0
-14573 -14571 0
-14573 -14572 0
14573 14571 14572 0
-14574 -14570 0
-14574 14573 0
14574 14570 -14573 0
-14575 -14571 0
-14575 -14574 0
14575 14571 14574 0
-14577 10 0
-14577 -4880 0
14577 -10 4880 0
-14578 -14576 0
-14578 -14577 0
14578 14576 14577 0
-14579 -14575 0
-14579 14578 0
14579 14575 -14578 0
-14580 -14576 0
-14580 -14579 0
14580 14576 14579 0
-14582 11 0
-14582 -4881 0
14582 -11 4881 0
-14583 -14581 0
-14583 -14582 0
14583 14581 14582 0
-14584 -14580 0
-14584 14583 0
14584 14580 -14583 0
-14585 -14581 0
-14585 -14584 0
14585 14581 14584 0
-14587 12 0
-14587 -4882 0
14587 -12 4882 0
-14588 -14586 0
-14588 -14587 0
14588 14586 14587 0
-14589 -14585 0
-14589 14588 0
14589 14585 -14588 0
-14590 -14586 0
-14590 -14589 0
14590 14586 14589 0
-14592 13 0
-14592 -4883 0
14592 -13 4883 0
-14593 -14591 0
-14593 -14592 0
14593 14591 14592 0
-14594 -14590 0
-14594 14593 0
14594 14590 -14593 0
-14595 -14591 0
-14595 -14594 0
14595 14591 14594 0
-14597 14 0
-14597 -4884 0
14597 -14 4884 0
-14598 -14596 0
-14598 -14597 0
14598 14596 14597 0
-14599 -14595 0
-14599 14598 0
14599 14595 -14598 0
-14600 -14596 0
-14600 -14599 0
14600 14596 14599 0
-14602 15 0
-14602 -4885 0
14602 -15 4885 0
-14603 -14601 0
-14603 -14602 0
14603 14601 14602 0
-14604 -14600 0
-14604 14603 0
14604 14600 -14603 0
-14605 -14601 0
-14605 -14604 0
14605 14601 14604 0
-14607 16 0
-14607 -4886 0
14607 -16 4886 0
-14608 -14606 0
-14608 -14607 0
14608 14606 14607 0
-14609 -14605 0
-14609 14608 0
14609 14605 -14608 0
-14610 -14606 0
-14610 -14609 0
14610 14606 14609 0
-14612 17 0
-14612 -4887 0
14612 -17 4887 0
-14613 -14611 0
-14613 -14612 0
14613 14611 14612 0
-14614 -14610 0
-14614 14613 0
14614 14610 -14613 0
-14615 -14611 0
-14615 -14614 0
14615 14611 14614 0
-14617 18 0
-14617 -4888 0
14617 -18 4888 0
-14618 -14616 0
-14618 -14617 0
14618 14616 14617 0
-14619 -14615 0
-14619 14618 0
14619 14615 -14618 0
-14620 -14616 0
-14620 -14619 0
14620 14616 14619 0
-14622 19 0
-14622 -4889 0
14622 -19 4889 0
-14623 -14621 0
-14623 -14622 0
14623 14621 14622 0
-14624 -14620 0
-14624 14623 0
14624 14620 -14623 0
-14625 -14621 0
-14625 -14624 0
14625 14621 14624 0
-14627 20 0
-14627 -4890 0
14627 -20 4890 0
-14628 -14626 0
-14628 -14627 0
14628 14626 14627 0
-14629 -14625 0
-14629 14628 0
14629 14625 -14628 0
-14630 -14626 0
-14630 -14629 0
14630 14626 14629 0
-14632 21 0
-14632 -4891 0
14632 -21 4891 0
-14633 -14631 0
-14633 -14632 0
14633 14631 14632 0
-14634 -14630 0
-14634 14633 0
14634 14630 -14633 0
-14635 -14631 0
-14635 -14634 0
14635 14631 14634 0
-14637 22 0
-14637 -4892 0
14637 -22 4892 0
-14638 -14636 0
-14638 -14637 0
14638 14636 14637 0
-14639 -14635 0
-14639 14638 0
14639 14635 -14638 0
-14640 -14636 0
-14640 -14639 0
14640 14636 14639 0
-14642 23 0
-14642 -4893 0
14642 -23 4893 0
-14643 -14641 0
-14643 -14642 0
14643 14641 14642 0
-14644 -14640 0
-14644 14643 0
14644 14640 -14643 0
-14645 -14641 0
-14645 -14644 0
14645 14641 14644 0
-14647 24 0
-14647 -4894 0
14647 -24 4894 0
-14648 -14646 0
-14648 -14647 0
14648 14646 14647 0
-14649 -14645 0
-14649 14648 0
14649 14645 -14648 0
-14650 -14646 0
-14650 -14649 0
14650 14646 14649 0
-14652 25 0
-14652 -4895 0
14652 -25 4895 0
-14653 -14651 0
-14653 -14652 0
14653 14651 14652 0
-14654 -14650 0
-14654 14653 0
14654 14650 -14653 0
-14655 -14651 0
-14655 -14654 0
14655 14651 14654 0
-14657 26 0
-14657 -4896 0
14657 -26 4896 0
-14658 -14656 0
-14658 -14657 0
14658 14656 14657 0
-14659 -14655 0
-14659 14658 0
14659 14655 -14658 0
-14660 -14656 0
-14660 -14659 0
14660 14656 14659 0
-14662 27 0
-14662 -4897 0
14662 -27 4897 0
-14663 -14661 0
-14663 -14662 0
14663 14661 14662 0
-14664 -14660 0
-14664 14663 0
14664 14660 -14663 0
-14665 -14661 0
-14665 -14664 0
14665 14661 14664 0
-14667 28 0
-14667 -4898 0
14667 -28 4898 0
-14668 -14666 0
-14668 -14667 0
14668 14666 14667 0
-14669 -14665 0
-14669 14668 0
14669 14665 -14668 0
-14670 -14666 0
-14670 -14669 0
14670 14666 14669 0
-14672 29 0
-14672 -4899 0
14672 -29 4899 0
-14673 -14671 0
-14673 -14672 0
14673 14671 14672 0
-14674 -14670 0
-14674 14673 0
14674 14670 -14673 0
-14675 -14671 0
-14675 -14674 0
14675 14671 14674 0
-14677 30 0
-14677 -4900 0
14677 -30 4900 0
-14678 -14676 0
-14678 -14677 0
14678 14676 14677 0
-14679 -14675 0
-14679 14678 0
14679 14675 -14678 0
-14680 -14676 0
-14680 -14679 0
14680 14676 14679 0
-14682 31 0
-14682 -4901 0
14682 -31 4901 0
-14683 -14681 0
-14683 -14682 0
14683 14681 14682 0
-14684 -14680 0
-14684 14683 0
14684 14680 -14683 0
-14685 -14681 0
-14685 -14684 0
14685 14681 14684 0
-14686 -4902 0
-14686 -14685 0
14686 4902 14685 0
-14687 -4902 0
-14687 -14686 0
14687 4902 14686 0
-14688 -4903 0
-14688 -14687 0
14688 4903 14687 0
-14689 -4903 0
-14689 -14688 0
14689 4903 14688 0
-14690 -4904 0
-14690 -14689 0
14690 4904 14689 0
-14691 -4904 0
-14691 -14690 0
14691 4904 14690 0
-14692 -4905 0
-14692 -14691 0
14692 4905 14691 0
-14693 -4905 0
-14693 -14692 0
14693 4905 14692 0
-14694 -4906 0
-14694 -14693 0
14694 4906 14693 0
-14695 -4906 0
-14695 -14694 0
14695 4906 14694 0
-14696 -4907 0
-14696 -14695 0
14696 4907 14695 0
-14697 -4907 0
-14697 -14696 0
14697 4907 14696 0
-14698 -4908 0
-14698 -14697 0
14698 4908 14697 0
-14699 -4908 0
-14699 -14698 0
14699 4908 14698 0
-14700 -4909 0
-14700 -14699 0
14700 4909 14699 0
-14701 -4909 0
-14701 -14700 0
14701 4909 14700 0
-14702 -4910 0
-14702 -14701 0
14702 4910 14701 0
-14703 -4910 0
-14703 -14702 0
14703 4910 14702 0
-14704 -4911 0
-14704 -14703 0
14704 4911 14703 0
-14705 -4911 0
-14705 -14704 0
14705 4911 14704 0
-14706 -4912 0
-14706 -14705 0
14706 4912 14705 0
-14707 -4912 0
-14707 -14706 0
14707 4912 14706 0
-14708 -4913 0
-14708 -14707 0
14708 4913 14707 0
-14709 -4913 0
-14709 -14708 0
14709 4913 14708 0
-14710 -4914 0
-14710 -14709 0
14710 4914 14709 0
-14711 -4914 0
-14711 -14710 0
14711 4914 14710 0
-14712 -4915 0
-14712 -14711 0
14712 4915 14711 0
-14713 -4915 0
-14713 -14712 0
14713 4915 14712 0
-14714 -4916 0
-14714 -14713 0
14714 4916 14713 0
-14715 -4916 0
-14715 -14714 0
14715 4916 14714 0
-14716 -4917 0
-14716 -14715 0
14716 4917 14715 0
-14717 -4917 0
-14717 -14716 0
14717 4917 14716 0
-14718 -4918 0
-14718 -14717 0
14718 4918 14717 0
-14719 -4918 0
-14719 -14718 0
14719 4918 14718 0
-14720 -4919 0
-14720 -14719 0
14720 4919 14719 0
-14721 -4919 0
-14721 -14720 0
14721 4919 14720 0
-14722 -4920 0
-14722 -14721 0
14722 4920 14721 0
-14723 -4920 0
-14723 -14722 0
14723 4920 14722 0
-14724 -4921 0
-14724 -14723 0
14724 4921 14723 0
-14725 -4921 0
-14725 -14724 0
14725 4921 14724 0
-14726 -4922 0
-14726 -14725 0
14726 4922 14725 0
-14727 -4922 0
-14727 -14726 0
14727 4922 14726 0
-14728 -4923 0
-14728 -14727 0
14728 4923 14727 0
-14729 -4923 0
-14729 -14728 0
14729 4923 14728 0
-14730 -4924 0
-14730 -14729 0
14730 4924 14729 0
-14731 -4924 0
-14731 -14730 0
14731 4924 14730 0
-14732 -4925 0
-14732 -14731 0
14732 4925 14731 0
-14733 -4925 0
-14733 -14732 0
14733 4925 14732 0
-14734 -4926 0
-14734 -14733 0
14734 4926 14733 0
-14735 -4926 0
-14735 -14734 0
14735 4926 14734 0
-14736 -4927 0
-14736 -14735 0
14736 4927 14735 0
-14737 -4927 0
-14737 -14736 0
14737 4927 14736 0
-14738 -4928 0
-14738 -14737 0
14738 4928 14737 0
-14739 -4928 0
-14739 -14738 0
14739 4928 14738 0
-14740 -4929 0
-14740 -14739 0
14740 4929 14739 0
-14741 -4929 0
-14741 -14740 0
14741 4929 14740 0
-14742 -4930 0
-14742 -14741 0
14742 4930 14741 0
-14743 -4930 0
-14743 -14742 0
14743 4930 14742 0
-14744 -4931 0
-14744 -14743 0
14744 4931 14743 0
-14745 -4931 0
-14745 -14744 0
14745 4931 14744 0
-14746 -4932 0
-14746 -14745 0
14746 4932 14745 0
-14747 -4932 0
-14747 -14746 0
14747 4932 14746 0
-14748 -4933 0
-14748 -14747 0
14748 4933 14747 0
-14749 -4933 0
-14749 -14748 0
14749 4933 14748 0
-14750 -4934 0
-14750 -14749 0
14750 4934 14749 0
-14751 -4934 0
-14751 -14750 0
14751 4934 14750 0
-14752 -4935 0
-14752 -14751 0
14752 4935 14751 0
-14753 -4935 0
-14753 -14752 0
14753 4935 14752 0
-14754 14536 0
-14754 -14753 0
14754 -14536 14753 0
-14755 14460 0
-14755 -14754 0
14755 -14460 14754 0
-14756 4874 0
-14756 6752 0
14756 -4874 -6752 0
-14757 4874 0
-14757 -14756 0
14757 -4874 14756 0
-14758 -4875 0
-14758 -14757 0
14758 4875 14757 0
-14759 4876 0
-14759 14758 0
14759 -4876 -14758 0
-14760 4876 0
-14760 -14759 0
14760 -4876 14759 0
-14761 -4877 0
-14761 -14760 0
14761 4877 14760 0
-14762 4878 0
-14762 14761 0
14762 -4878 -14761 0
-14763 4878 0
-14763 -14762 0
14763 -4878 14762 0
-14764 -4879 0
-14764 -14763 0
14764 4879 14763 0
-14765 4880 0
-14765 14764 0
14765 -4880 -14764 0
-14766 4880 0
-14766 -14765 0
14766 -4880 14765 0
-14767 -4881 0
-14767 -14766 0
14767 4881 14766 0
-14768 4882 0
-14768 14767 0
14768 -4882 -14767 0
-14769 4882 0
-14769 -14768 0
14769 -4882 14768 0
-14770 -4883 0
-14770 -14769 0
14770 4883 14769 0
-14771 4884 0
-14771 14770 0
14771 -4884 -14770 0
-14772 4884 0
-14772 -14771 0
14772 -4884 14771 0
-14773 -4885 0
-14773 -14772 0
14773 4885 14772 0
-14774 4886 0
-14774 14773 0
14774 -4886 -14773 0
-14775 4886 0
-14775 -14774 0
14775 -4886 14774 0
-14776 -4887 0
-14776 -14775 0
14776 4887 14775 0
-14777 4888 0
-14777 14776 0
14777 -4888 -14776 0
-14778 4888 0
-14778 -14777 0
14778 -4888 14777 0
-14779 -4889 0
-14779 -14778 0
14779 4889 14778 0
-14780 4890 0
-14780 14779 0
14780 -4890 -14779 0
-14781 4890 0
-14781 -14780 0
14781 -4890 14780 0
-14782 -4891 0
-14782 -14781 0
14782 4891 14781 0
-14783 4892 0
-14783 14782 0
14783 -4892 -14782 0
-14784 4892 0
-14784 -14783 0
14784 -4892 14783 0
-14785 -4893 0
-14785 -14784 0
14785 4893 14784 0
-14786 4894 0
-14786 14785 0
14786 -4894 -14785 0
-14787 4894 0
-14787 -14786 0
14787 -4894 14786 0
-14788 -4895 0
-14788 -14787 0
14788 4895 14787 0
-14789 4896 0
-14789 14788 0
14789 -4896 -14788 0
-14790 4896 0
-14790 -14789 0
14790 -4896 14789 0
-14791 -4897 0
-14791 -14790 0
14791 4897 14790 0
-14792 4898 0
-14792 14791 0
14792 -4898 -14791 0
-14793 4898 0
-14793 -14792 0
14793 -4898 14792 0
-14794 -4899 0
-14794 -14793 0
14794 4899 14793 0
-14795 4900 0
-14795 14794 0
14795 -4900 -14794 0
-14796 4900 0
-14796 -14795 0
14796 -4900 14795 0
-14797 -4901 0
-14797 -14796 0
14797 4901 14796 0
-14798 4902 0
-14798 14797 0
14798 -4902 -14797 0
-14799 4902 0
-14799 -14798 0
14799 -4902 14798 0
-14800 -4903 0
-14800 -14799 0
14800 4903 14799 0
-14801 4904 0
-14801 14800 0
14801 -4904 -14800 0
-14802 4904 0
-14802 -14801 0
14802 -4904 14801 0
-14803 -4905 0
-14803 -14802 0
14803 4905 14802 0
-14804 4906 0
-14804 14803 0
14804 -4906 -14803 0
-14805 4906 0
-14805 -14804 0
14805 -4906 14804 0
-14806 -4907 0
-14806 -14805 0
14806 4907 14805 0
-14807 4908 0
-14807 14806 0
14807 -4908 -14806 0
-14808 4908 0
-14808 -14807 0
14808 -4908 14807 0
-14809 -4909 0
-14809 -14808 0
14809 4909 14808 0
-14810 4910 0
-14810 14809 0
14810 -4910 -14809 0
-14811 4910 0
-14811 -14810 0
14811 -4910 14810 0
-14812 -4911 0
-14812 -14811 0
14812 4911 14811 0
-14813 4912 0
-14813 14812 0
14813 -4912 -14812 0
-14814 4912 0
-14814 -14813 0
14814 -4912 14813 0
-14815 -4913 0
-14815 -14814 0
14815 4913 14814 0
-14816 4914 0
-14816 14815 0
14816 -4914 -14815 0
-14817 4914 0
-14817 -14816 0
14817 -4914 14816 0
-14818 -4915 0
-14818 -14817 0
14818 4915 14817 0
-14819 4916 0
-14819 14818 0
14819 -4916 -14818 0
-14820 4916 0
-14820 -14819 0
14820 -4916 14819 0
-14821 -4917 0
-14821 -14820 0
14821 4917 14820 0
-14822 4918 0
-14822 14821 0
14822 -4918 -14821 0
-14823 4918 0
-14823 -14822 0
14823 -4918 14822 0
-14824 -4919 0
-14824 -14823 0
14824 4919 14823 0
-14825 4920 0
-14825 14824 0
14825 -4920 -14824 0
-14826 4920 0
-14826 -14825 0
14826 -4920 14825 0
-14827 -4921 0
-14827 -14826 0
14827 4921 14826 0
-14828 4922 0
-14828 14827 0
14828 -4922 -14827 0
-14829 4922 0
-14829 -14828 0
14829 -4922 14828 0
-14830 -4923 0
-14830 -14829 0
14830 4923 14829 0
-14831 4924 0
-14831 14830 0
14831 -4924 -14830 0
-14832 4924 0
-14832 -14831 0
14832 -4924 14831 0
-14833 -4925 0
-14833 -14832 0
14833 4925 14832 0
-14834 4926 0
-14834 14833 0
14834 -4926 -14833 0
-14835 4926 0
-14835 -14834 0
14835 -4926 14834 0
-14836 -4927 0
-14836 -14835 0
14836 4927 14835 0
-14837 4928 0
-14837 14836 0
14837 -4928 -14836 0
-14838 4928 0
-14838 -14837 0
14838 -4928 14837 0
-14839 -4929 0
-14839 -14838 0
14839 4929 14838 0
-14840 4930 0
-14840 14839 0
14840 -4930 -14839 0
-14841 4930 0
-14841 -14840 0
14841 -4930 14840 0
-14842 -4931 0
-14842 -14841 0
14842 4931 14841 0
-14843 4932 0
-14843 14842 0
14843 -4932 -14842 0
-14844 4932 0
-14844 -14843 0
14844 -4932 14843 0
-14845 -4933 0
-14845 -14844 0
14845 4933 14844 0
-14846 4934 0
-14846 14845 0
14846 -4934 -14845 0
-14847 4934 0
-14847 -14846 0
14847 -4934 14846 0
-14848 -4935 0
-14848 -14847 0
14848 4935 14847 0
-14849 6081 0
-14849 -14848 0
14849 -6081 14848 0
-14850 14755 0
-14850 -14849 0
14850 -14755 14849 0
-14903 6100 0
-14903 14518 0
14903 -6100 -14518 0
-14896 6099 0
-14896 14511 0
14896 -6099 -14511 0
-14889 6098 0
-14889 14504 0
14889 -6098 -14504 0
-14882 6097 0
-14882 14497 0
14882 -6097 -14497 0
-14875 6096 0
-14875 14490 0
14875 -6096 -14490 0
-14868 6095 0
-14868 14483 0
14868 -6095 -14483 0
-14861 6094 0
-14861 14476 0
14861 -6094 -14476 0
-14854 6093 0
-14854 14469 0
14854 -6093 -14469 0
-14851 6092 0
-14851 14463 0
14851 -6092 -14463 0
-14855 -6093 0
-14855 -14469 0
14855 6093 14469 0
-14856 -14854 0
-14856 -14855 0
14856 14854 14855 0
-14857 14851 0
-14857 14856 0
14857 -14851 -14856 0
-14860 -14854 0
-14860 -14857 0
14860 14854 14857 0
-14862 -6094 0
-14862 -14476 0
14862 6094 14476 0
-14863 -14861 0
-14863 -14862 0
14863 14861 14862 0
-14864 -14860 0
-14864 14863 0
14864 14860 -14863 0
-14867 -14861 0
-14867 -14864 0
14867 14861 14864 0
-14869 -6095 0
-14869 -14483 0
14869 6095 14483 0
-14870 -14868 0
-14870 -14869 0
14870 14868 14869 0
-14871 -14867 0
-14871 14870 0
14871 14867 -14870 0
-14874 -14868 0
-14874 -14871 0
14874 14868 14871 0
-14876 -6096 0
-14876 -14490 0
14876 6096 14490 0
-14877 -14875 0
-14877 -14876 0
14877 14875 14876 0
-14878 -14874 0
-14878 14877 0
14878 14874 -14877 0
-14881 -14875 0
-14881 -14878 0
14881 14875 14878 0
-14883 -6097 0
-14883 -14497 0
14883 6097 14497 0
-14884 -14882 0
-14884 -14883 0
14884 14882 14883 0
-14885 -14881 0
-14885 14884 0
14885 14881 -14884 0
-14888 -14882 0
-14888 -14885 0
14888 14882 14885 0
-14890 -6098 0
-14890 -14504 0
14890 6098 14504 0
-14891 -14889 0
-14891 -14890 0
14891 14889 14890 0
-14892 -14888 0
-14892 14891 0
14892 14888 -14891 0
-14895 -14889 0
-14895 -14892 0
14895 14889 14892 0
-14897 -6099 0
-14897 -14511 0
14897 6099 14511 0
-14898 -14896 0
-14898 -14897 0
14898 14896 14897 0
-14899 -14895 0
-14899 14898 0
14899 14895 -14898 0
-14902 -14896 0
-14902 -14899 0
14902 14896 14899 0
-14904 -6100 0
-14904 -14518 0
14904 6100 14518 0
-14905 -14903 0
-14905 -14904 0
14905 14903 14904 0
-14906 -14902 0
-14906 14905 0
14906 14902 -14905 0
-14909 -14903 0
-14909 -14906 0
14909 14903 14906 0
-14910 6101 0
-14910 14525 0
14910 -6101 -14525 0
-14911 -6101 0
-14911 -14525 0
14911 6101 14525 0
-14912 -14910 0
-14912 -14911 0
14912 14910 14911 0
-14913 -14909 0
-14913 14912 0
14913 14909 -14912 0
-14914 14909 0
-14914 -14912 0
14914 -14909 14912 0
-14915 -14913 0
-14915 -14914 0
14915 14913 14914 0
-14907 14902 0
-14907 -14905 0
14907 -14902 14905 0
-14908 -14906 0
-14908 -14907 0
14908 14906 14907 0
-14900 14895 0
-14900 -14898 0
14900 -14895 14898 0
-14901 -14899 0
-14901 -14900 0
14901 14899 14900 0
-14893 14888 0
-14893 -14891 0
14893 -14888 14891 0
-14894 -14892 0
-14894 -14893 0
14894 14892 14893 0
-14886 14881 0
-14886 -14884 0
14886 -14881 14884 0
-14887 -14885 0
-14887 -14886 0
14887 14885 14886 0
-14879 14874 0
-14879 -14877 0
14879 -14874 14877 0
-14880 -14878 0
-14880 -14879 0
14880 14878 14879 0
-14865 14860 0
-14865 -14863 0
14865 -14860 14863 0
-14866 -14864 0
-14866 -14865 0
14866 14864 14865 0
-14872 14867 0
-14872 -14870 0
14872 -14867 14870 0
-14873 -14871 0
-14873 -14872 0
14873 14871 14872 0
-14917 -14866 0
-14917 -14873 0
14917 14866 14873 0
-14918 -14880 0
-14918 14917 0
14918 14880 -14917 0
-14919 -14887 0
-14919 14918 0
14919 14887 -14918 0
-14920 -14894 0
-14920 14919 0
14920 14894 -14919 0
-14921 -14901 0
-14921 14920 0
14921 14901 -14920 0
-14922 -14908 0
-14922 14921 0
14922 14908 -14921 0
-14923 -14915 0
-14923 14922 0
14923 14915 -14922 0
-15068 -31 0
-15068 6716 0
15068 31 -6716 0
-15063 -30 0
-15063 6715 0
15063 30 -6715 0
-15058 -29 0
-15058 6714 0
15058 29 -6714 0
-15053 -28 0
-15053 6713 0
15053 28 -6713 0
-15048 -27 0
-15048 6712 0
15048 27 -6712 0
-15043 -26 0
-15043 6711 0
15043 26 -6711 0
-15038 -25 0
-15038 6710 0
15038 25 -6710 0
-15033 -24 0
-15033 6709 0
15033 24 -6709 0
-15028 -23 0
-15028 6708 0
15028 23 -6708 0
-15023 -22 0
-15023 6707 0
15023 22 -6707 0
-15018 -21 0
-15018 6706 0
15018 21 -6706 0
-15013 -20 0
-15013 6705 0
15013 20 -6705 0
-15008 -19 0
-15008 6704 0
15008 19 -6704 0
-15003 -18 0
-15003 6703 0
15003 18 -6703 0
-14998 -17 0
-14998 6702 0
14998 17 -6702 0
-14993 -16 0
-14993 6701 0
14993 16 -6701 0
-14988 -15 0
-14988 6700 0
14988 15 -6700 0
-14983 -14 0
-14983 6699 0
14983 14 -6699 0
-14978 -13 0
-14978 6698 0
14978 13 -6698 0
-14973 -12 0
-14973 6697 0
14973 12 -6697 0
-14968 -11 0
-14968 6696 0
14968 11 -6696 0
-14963 -10 0
-14963 6695 0
14963 10 -6695 0
-14958 -9 0
-14958 6694 0
14958 9 -6694 0
-14953 -8 0
-14953 6693 0
14953 8 -6693 0
-14948 -7 0
-14948 6692 0
14948 7 -6692 0
-14943 -6 0
-14943 6691 0
14943 6 -6691 0
-14938 -5 0
-14938 6690 0
14938 5 -6690 0
-14933 -4 0
-14933 6689 0
14933 4 -6689 0
-14928 -3 0
-14928 6688 0
14928 3 -6688 0
-14924 -2 0
-14924 6687 0
14924 2 -6687 0
-14925 2 0
-14925 -6687 0
14925 -2 6687 0
-14926 -14924 0
-14926 -14925 0
14926 14924 14925 0
-14927 -14924 0
-14927 -14926 0
14927 14924 14926 0
-14929 3 0
-14929 -6688 0
14929 -3 6688 0
-14930 -14928 0
-14930 -14929 0
14930 14928 14929 0
-14931 -14927 0
-14931 14930 0
14931 14927 -14930 0
-14932 -14928 0
-14932 -14931 0
14932 14928 14931 0
-14934 4 0
-14934 -6689 0
14934 -4 6689 0
-14935 -14933 0
-14935 -14934 0
14935 14933 14934 0
-14936 -14932 0
-14936 14935 0
14936 14932 -14935 0
-14937 -14933 0
-14937 -14936 0
14937 14933 14936 0
-14939 5 0
-14939 -6690 0
14939 -5 6690 0
-14940 -14938 0
-14940 -14939 0
14940 14938 14939 0
-14941 -14937 0
-14941 14940 0
14941 14937 -14940 0
-14942 -14938 0
-14942 -14941 0
14942 14938 14941 0
-14944 6 0
-14944 -6691 0
14944 -6 6691 0
-14945 -14943 0
-14945 -14944 0
14945 14943 14944 0
-14946 -14942 0
-14946 14945 0
14946 14942 -14945 0
-14947 -14943 0
-14947 -14946 0
14947 14943 14946 0
-14949 7 0
-14949 -6692 0
14949 -7 6692 0
-14950 -14948 0
-14950 -14949 0
14950 14948 14949 0
-14951 -14947 0
-14951 14950 0
14951 14947 -14950 0
-14952 -14948 0
-14952 -14951 0
14952 14948 14951 0
-14954 8 0
-14954 -6693 0
14954 -8 6693 0
-14955 -14953 0
-14955 -14954 0
14955 14953 14954 0
-14956 -14952 0
-14956 14955 0
14956 14952 -14955 0
-14957 -14953 0
-14957 -14956 0
14957 14953 14956 0
-14959 9 0
-14959 -6694 0
14959 -9 6694 0
-14960 -14958 0
-14960 -14959 0
14960 14958 14959 0
-14961 -14957 0
-14961 14960 0
14961 14957 -14960 0
-14962 -14958 0
-14962 -14961 0
14962 14958 14961 0
-14964 10 0
-14964 -6695 0
14964 -10 6695 0
-14965 -14963 0
-14965 -14964 0
14965 14963 14964 0
-14966 -14962 0
-14966 14965 0
14966 14962 -14965 0
-14967 -14963 0
-14967 -14966 0
14967 14963 14966 0
-14969 11 0
-14969 -6696 0
14969 -11 6696 0
-14970 -14968 0
-14970 -14969 0
14970 14968 14969 0
-14971 -14967 0
-14971 14970 0
14971 14967 -14970 0
-14972 -14968 0
-14972 -14971 0
14972 14968 14971 0
-14974 12 0
-14974 -6697 0
14974 -12 6697 0
-14975 -14973 0
-14975 -14974 0
14975 14973 14974 0
-14976 -14972 0
-14976 14975 0
14976 14972 -14975 0
-14977 -14973 0
-14977 -14976 0
14977 14973 14976 0
-14979 13 0
-14979 -6698 0
14979 -13 6698 0
-14980 -14978 0
-14980 -14979 0
14980 14978 14979 0
-14981 -14977 0
-14981 14980 0
14981 14977 -14980 0
-14982 -14978 0
-14982 -14981 0
14982 14978 14981 0
-14984 14 0
-14984 -6699 0
14984 -14 6699 0
-14985 -14983 0
-14985 -14984 0
14985 14983 14984 0
-14986 -14982 0
-14986 14985 0
14986 14982 -14985 0
-14987 -14983 0
-14987 -14986 0
14987 14983 14986 0
-14989 15 0
-14989 -6700 0
14989 -15 6700 0
-14990 -14988 0
-14990 -14989 0
14990 14988 14989 0
-14991 -14987 0
-14991 14990 0
14991 14987 -14990 0
-14992 -14988 0
-14992 -14991 0
14992 14988 14991 0
-14994 16 0
-14994 -6701 0
14994 -16 6701 0
-14995 -14993 0
-14995 -14994 0
14995 14993 14994 0
-14996 -14992 0
-14996 14995 0
14996 14992 -14995 0
-14997 -14993 0
-14997 -14996 0
14997 14993 14996 0
-14999 17 0
-14999 -6702 0
14999 -17 6702 0
-15000 -14998 0
-15000 -14999 0
15000 14998 14999 0
-15001 -14997 0
-15001 15000 0
15001 14997 -15000 0
-15002 -14998 0
-15002 -15001 0
15002 14998 15001 0
-15004 18 0
-15004 -6703 0
15004 -18 6703 0
-15005 -15003 0
-15005 -15004 0
15005 15003 15004 0
-15006 -15002 0
-15006 15005 0
15006 15002 -15005 0
-15007 -15003 0
-15007 -15006 0
15007 15003 15006 0
-15009 19 0
-15009 -6704 0
15009 -19 6704 0
-15010 -15008 0
-15010 -15009 0
15010 15008 15009 0
-15011 -15007 0
-15011 15010 0
15011 15007 -15010 0
-15012 -15008 0
-15012 -15011 0
15012 15008 15011 0
-15014 20 0
-15014 -6705 0
15014 -20 6705 0
-15015 -15013 0
-15015 -15014 0
15015 15013 15014 0
-15016 -15012 0
-15016 15015 0
15016 15012 -15015 0
-15017 -15013 0
-15017 -15016 0
15017 15013 15016 0
-15019 21 0
-15019 -6706 0
15019 -21 6706 0
-15020 -15018 0
-15020 -15019 0
15020 15018 15019 0
-15021 -15017 0
-15021 15020 0
15021 15017 -15020 0
-15022 -15018 0
-15022 -15021 0
15022 15018 15021 0
-15024 22 0
-15024 -6707 0
15024 -22 6707 0
-15025 -15023 0
-15025 -15024 0
15025 15023 15024 0
-15026 -15022 0
-15026 15025 0
15026 15022 -15025 0
-15027 -15023 0
-15027 -15026 0
15027 15023 15026 0
-15029 23 0
-15029 -6708 0
15029 -23 6708 0
-15030 -15028 0
-15030 -15029 0
15030 15028 15029 0
-15031 -15027 0
-15031 15030 0
15031 15027 -15030 0
-15032 -15028 0
-15032 -15031 0
15032 15028 15031 0
-15034 24 0
-15034 -6709 0
15034 -24 6709 0
-15035 -15033 0
-15035 -15034 0
15035 15033 15034 0
-15036 -15032 0
-15036 15035 0
15036 15032 -15035 0
-15037 -15033 0
-15037 -15036 0
15037 15033 15036 0
-15039 25 0
-15039 -6710 0
15039 -25 6710 0
-15040 -15038 0
-15040 -15039 0
15040 15038 15039 0
-15041 -15037 0
-15041 15040 0
15041 15037 -15040 0
-15042 -15038 0
-15042 -15041 0
15042 15038 15041 0
-15044 26 0
-15044 -6711 0
15044 -26 6711 0
-15045 -15043 0
-15045 -15044 0
15045 15043 15044 0
-15046 -15042 0
-15046 15045 0
15046 15042 -15045 0
-15047 -15043 0
-15047 -15046 0
15047 15043 15046 0
-15049 27 0
-15049 -6712 0
15049 -27 6712 0
-15050 -15048 0
-15050 -15049 0
15050 15048 15049 0
-15051 -15047 0
-15051 15050 0
15051 15047 -15050 0
-15052 -15048 0
-15052 -15051 0
15052 15048 15051 0
-15054 28 0
-15054 -6713 0
15054 -28 6713 0
-15055 -15053 0
-15055 -15054 0
15055 15053 15054 0
-15056 -15052 0
-15056 15055 0
15056 15052 -15055 0
-15057 -15053 0
-15057 -15056 0
15057 15053 15056 0
-15059 29 0
-15059 -6714 0
15059 -29 6714 0
-15060 -15058 0
-15060 -15059 0
15060 15058 15059 0
-15061 -15057 0
-15061 15060 0
15061 15057 -15060 0
-15062 -15058 0
-15062 -15061 0
15062 15058 15061 0
-15064 30 0
-15064 -6715 0
15064 -30 6715 0
-15065 -15063 0
-15065 -15064 0
15065 15063 15064 0
-15066 -15062 0
-15066 15065 0
15066 15062 -15065 0
-15067 -15063 0
-15067 -15066 0
15067 15063 15066 0
-15069 31 0
-15069 -6716 0
15069 -31 6716 0
-15070 -15068 0
-15070 -15069 0
15070 15068 15069 0
-15071 -15067 0
-15071 15070 0
15071 15067 -15070 0
-15072 -15068 0
-15072 -15071 0
15072 15068 15071 0
-15073 -6717 0
-15073 -15072 0
15073 6717 15072 0
-15074 -6717 0
-15074 -15073 0
15074 6717 15073 0
-15075 -6718 0
-15075 -15074 0
15075 6718 15074 0
-15076 -6718 0
-15076 -15075 0
15076 6718 15075 0
-15077 -6719 0
-15077 -15076 0
15077 6719 15076 0
-15078 -6719 0
-15078 -15077 0
15078 6719 15077 0
-15079 -6720 0
-15079 -15078 0
15079 6720 15078 0
-15080 -6720 0
-15080 -15079 0
15080 6720 15079 0
-15081 -6721 0
-15081 -15080 0
15081 6721 15080 0
-15082 -6721 0
-15082 -15081 0
15082 6721 15081 0
-15083 -6722 0
-15083 -15082 0
15083 6722 15082 0
-15084 -6722 0
-15084 -15083 0
15084 6722 15083 0
-15085 -6723 0
-15085 -15084 0
15085 6723 15084 0
-15086 -6723 0
-15086 -15085 0
15086 6723 15085 0
-15087 -6724 0
-15087 -15086 0
15087 6724 15086 0
-15088 -6724 0
-15088 -15087 0
15088 6724 15087 0
-15089 -6725 0
-15089 -15088 0
15089 6725 15088 0
-15090 -6725 0
-15090 -15089 0
15090 6725 15089 0
-15091 -6726 0
-15091 -15090 0
15091 6726 15090 0
-15092 -6726 0
-15092 -15091 0
15092 6726 15091 0
-15093 -6727 0
-15093 -15092 0
15093 6727 15092 0
-15094 -6727 0
-15094 -15093 0
15094 6727 15093 0
-15095 -6728 0
-15095 -15094 0
15095 6728 15094 0
-15096 -6728 0
-15096 -15095 0
15096 6728 15095 0
-15097 -6729 0
-15097 -15096 0
15097 6729 15096 0
-15098 -6729 0
-15098 -15097 0
15098 6729 15097 0
-15099 -6730 0
-15099 -15098 0
15099 6730 15098 0
-15100 -6730 0
-15100 -15099 0
15100 6730 15099 0
-15101 -6731 0
-15101 -15100 0
15101 6731 15100 0
-15102 -6731 0
-15102 -15101 0
15102 6731 15101 0
-15103 -6732 0
-15103 -15102 0
15103 6732 15102 0
-15104 -6732 0
-15104 -15103 0
15104 6732 15103 0
-15105 -6733 0
-15105 -15104 0
15105 6733 15104 0
-15106 -6733 0
-15106 -15105 0
15106 6733 15105 0
-15107 -6734 0
-15107 -15106 0
15107 6734 15106 0
-15108 -6734 0
-15108 -15107 0
15108 6734 15107 0
-15109 -6735 0
-15109 -15108 0
15109 6735 15108 0
-15110 -6735 0
-15110 -15109 0
15110 6735 15109 0
-15111 -6736 0
-15111 -15110 0
15111 6736 15110 0
-15112 -6736 0
-15112 -15111 0
15112 6736 15111 0
-15113 -6737 0
-15113 -15112 0
15113 6737 15112 0
-15114 -6737 0
-15114 -15113 0
15114 6737 15113 0
-15115 -6738 0
-15115 -15114 0
15115 6738 15114 0
-15116 -6738 0
-15116 -15115 0
15116 6738 15115 0
-15117 -6739 0
-15117 -15116 0
15117 6739 15116 0
-15118 -6739 0
-15118 -15117 0
15118 6739 15117 0
-15119 -6740 0
-15119 -15118 0
15119 6740 15118 0
-15120 -6740 0
-15120 -15119 0
15120 6740 15119 0
-15121 -6741 0
-15121 -15120 0
15121 6741 15120 0
-15122 -6741 0
-15122 -15121 0
15122 6741 15121 0
-15123 -6742 0
-15123 -15122 0
15123 6742 15122 0
-15124 -6742 0
-15124 -15123 0
15124 6742 15123 0
-15125 -6743 0
-15125 -15124 0
15125 6743 15124 0
-15126 -6743 0
-15126 -15125 0
15126 6743 15125 0
-15127 -6744 0
-15127 -15126 0
15127 6744 15126 0
-15128 -6744 0
-15128 -15127 0
15128 6744 15127 0
-15129 -6745 0
-15129 -15128 0
15129 6745 15128 0
-15130 -6745 0
-15130 -15129 0
15130 6745 15129 0
-15131 -6746 0
-15131 -15130 0
15131 6746 15130 0
-15132 -6746 0
-15132 -15131 0
15132 6746 15131 0
-15133 -6747 0
-15133 -15132 0
15133 6747 15132 0
-15134 -6747 0
-15134 -15133 0
15134 6747 15133 0
-15135 -6748 0
-15135 -15134 0
15135 6748 15134 0
-15136 -6748 0
-15136 -15135 0
15136 6748 15135 0
-15137 -6749 0
-15137 -15136 0
15137 6749 15136 0
-15138 -6749 0
-15138 -15137 0
15138 6749 15137 0
-15139 -6750 0
-15139 -15138 0
15139 6750 15138 0
-15140 -6750 0
-15140 -15139 0
15140 6750 15139 0
-15141 14923 0
-15141 -15140 0
15141 -14923 15140 0
-15142 14850 0
-15142 -15141 0
15142 -14850 15141 0
-15143 6689 0
-15143 8567 0
15143 -6689 -8567 0
-15144 6689 0
-15144 -15143 0
15144 -6689 15143 0
-15145 -6690 0
-15145 -15144 0
15145 6690 15144 0
-15146 6691 0
-15146 15145 0
15146 -6691 -15145 0
-15147 6691 0
-15147 -15146 0
15147 -6691 15146 0
-15148 -6692 0
-15148 -15147 0
15148 6692 15147 0
-15149 6693 0
-15149 15148 0
15149 -6693 -15148 0
-15150 6693 0
-15150 -15149 0
15150 -6693 15149 0
-15151 -6694 0
-15151 -15150 0
15151 6694 15150 0
-15152 6695 0
-15152 15151 0
15152 -6695 -15151 0
-15153 6695 0
-15153 -15152 0
15153 -6695 15152 0
-15154 -6696 0
-15154 -15153 0
15154 6696 15153 0
-15155 6697 0
-15155 15154 0
15155 -6697 -15154 0
-15156 6697 0
-15156 -15155 0
15156 -6697 15155 0
-15157 -6698 0
-15157 -15156 0
15157 6698 15156 0
-15158 6699 0
-15158 15157 0
15158 -6699 -15157 0
-15159 6699 0
-15159 -15158 0
15159 -6699 15158 0
-15160 -6700 0
-15160 -15159 0
15160 6700 15159 0
-15161 6701 0
-15161 15160 0
15161 -6701 -15160 0
-15162 6701 0
-15162 -15161 0
15162 -6701 15161 0
-15163 -6702 0
-15163 -15162 0
15163 6702 15162 0
-15164 6703 0
-15164 15163 0
15164 -6703 -15163 0
-15165 6703 0
-15165 -15164 0
15165 -6703 15164 0
-15166 -6704 0
-15166 -15165 0
15166 6704 15165 0
-15167 6705 0
-15167 15166 0
15167 -6705 -15166 0
-15168 6705 0
-15168 -15167 0
15168 -6705 15167 0
-15169 -6706 0
-15169 -15168 0
15169 6706 15168 0
-15170 6707 0
-15170 15169 0
15170 -6707 -15169 0
-15171 6707 0
-15171 -15170 0
15171 -6707 15170 0
-15172 -6708 0
-15172 -15171 0
15172 6708 15171 0
-15173 6709 0
-15173 15172 0
15173 -6709 -15172 0
-15174 6709 0
-15174 -15173 0
15174 -6709 15173 0
-15175 -6710 0
-15175 -15174 0
15175 6710 15174 0
-15176 6711 0
-15176 15175 0
15176 -6711 -15175 0
-15177 6711 0
-15177 -15176 0
15177 -6711 15176 0
-15178 -6712 0
-15178 -15177 0
15178 6712 15177 0
-15179 6713 0
-15179 15178 0
15179 -6713 -15178 0
-15180 6713 0
-15180 -15179 0
15180 -6713 15179 0
-15181 -6714 0
-15181 -15180 0
15181 6714 15180 0
-15182 6715 0
-15182 15181 0
15182 -6715 -15181 0
-15183 6715 0
-15183 -15182 0
15183 -6715 15182 0
-15184 -6716 0
-15184 -15183 0
15184 6716 15183 0
-15185 6717 0
-15185 15184 0
15185 -6717 -15184 0
-15186 6717 0
-15186 -15185 0
15186 -6717 15185 0
-15187 -6718 0
-15187 -15186 0
15187 6718 15186 0
-15188 6719 0
-15188 15187 0
15188 -6719 -15187 0
-15189 6719 0
-15189 -15188 0
15189 -6719 15188 0
-15190 -6720 0
-15190 -15189 0
15190 6720 15189 0
-15191 6721 0
-15191 15190 0
15191 -6721 -15190 0
-15192 6721 0
-15192 -15191 0
15192 -6721 15191 0
-15193 -6722 0
-15193 -15192 0
15193 6722 15192 0
-15194 6723 0
-15194 15193 0
15194 -6723 -15193 0
-15195 6723 0
-15195 -15194 0
15195 -6723 15194 0
-15196 -6724 0
-15196 -15195 0
15196 6724 15195 0
-15197 6725 0
-15197 15196 0
15197 -6725 -15196 0
-15198 6725 0
-15198 -15197 0
15198 -6725 15197 0
-15199 -6726 0
-15199 -15198 0
15199 6726 15198 0
-15200 6727 0
-15200 15199 0
15200 -6727 -15199 0
-15201 6727 0
-15201 -15200 0
15201 -6727 15200 0
-15202 -6728 0
-15202 -15201 0
15202 6728 15201 0
-15203 6729 0
-15203 15202 0
15203 -6729 -15202 0
-15204 6729 0
-15204 -15203 0
15204 -6729 15203 0
-15205 -6730 0
-15205 -15204 0
15205 6730 15204 0
-15206 6731 0
-15206 15205 0
15206 -6731 -15205 0
-15207 6731 0
-15207 -15206 0
15207 -6731 15206 0
-15208 -6732 0
-15208 -15207 0
15208 6732 15207 0
-15209 6733 0
-15209 15208 0
15209 -6733 -15208 0
-15210 6733 0
-15210 -15209 0
15210 -6733 15209 0
-15211 -6734 0
-15211 -15210 0
15211 6734 15210 0
-15212 6735 0
-15212 15211 0
15212 -6735 -15211 0
-15213 6735 0
-15213 -15212 0
15213 -6735 15212 0
-15214 -6736 0
-15214 -15213 0
15214 6736 15213 0
-15215 6737 0
-15215 15214 0
15215 -6737 -15214 0
-15216 6737 0
-15216 -15215 0
15216 -6737 15215 0
-15217 -6738 0
-15217 -15216 0
15217 6738 15216 0
-15218 6739 0
-15218 15217 0
15218 -6739 -15217 0
-15219 6739 0
-15219 -15218 0
15219 -6739 15218 0
-15220 -6740 0
-15220 -15219 0
15220 6740 15219 0
-15221 6741 0
-15221 15220 0
15221 -6741 -15220 0
-15222 6741 0
-15222 -15221 0
15222 -6741 15221 0
-15223 -6742 0
-15223 -15222 0
15223 6742 15222 0
-15224 6743 0
-15224 15223 0
15224 -6743 -15223 0
-15225 6743 0
-15225 -15224 0
15225 -6743 15224 0
-15226 -6744 0
-15226 -15225 0
15226 6744 15225 0
-15227 6745 0
-15227 15226 0
15227 -6745 -15226 0
-15228 6745 0
-15228 -15227 0
15228 -6745 15227 0
-15229 -6746 0
-15229 -15228 0
15229 6746 15228 0
-15230 6747 0
-15230 15229 0
15230 -6747 -15229 0
-15231 6747 0
-15231 -15230 0
15231 -6747 15230 0
-15232 -6748 0
-15232 -15231 0
15232 6748 15231 0
-15233 6749 0
-15233 15232 0
15233 -6749 -15232 0
-15234 6749 0
-15234 -15233 0
15234 -6749 15233 0
-15235 -6750 0
-15235 -15234 0
15235 6750 15234 0
-15236 7896 0
-15236 -15235 0
15236 -7896 15235 0
-15237 15142 0
-15237 -15236 0
15237 -15142 15236 0
-15290 7915 0
-15290 14908 0
15290 -7915 -14908 0
-15283 7914 0
-15283 14901 0
15283 -7914 -14901 0
-15276 7913 0
-15276 14894 0
15276 -7913 -14894 0
-15269 7912 0
-15269 14887 0
15269 -7912 -14887 0
-15262 7911 0
-15262 14880 0
15262 -7911 -14880 0
-15255 7910 0
-15255 14873 0
15255 -7910 -14873 0
-15248 7909 0
-15248 14866 0
15248 -7909 -14866 0
-14858 -14851 0
-14858 -14856 0
14858 14851 14856 0
-14859 -14857 0
-14859 -14858 0
14859 14857 14858 0
-15241 7908 0
-15241 14859 0
15241 -7908 -14859 0
-14852 -6092 0
-14852 -14463 0
14852 6092 14463 0
-14853 -14851 0
-14853 -14852 0
14853 14851 14852 0
-15238 7907 0
-15238 14853 0
15238 -7907 -14853 0
-15242 -7908 0
-15242 -14859 0
15242 7908 14859 0
-15243 -15241 0
-15243 -15242 0
15243 15241 15242 0
-15244 15238 0
-15244 15243 0
15244 -15238 -15243 0
-15247 -15241 0
-15247 -15244 0
15247 15241 15244 0
-15249 -7909 0
-15249 -14866 0
15249 7909 14866 0
-15250 -15248 0
-15250 -15249 0
15250 15248 15249 0
-15251 -15247 0
-15251 15250 0
15251 15247 -15250 0
-15254 -15248 0
-15254 -15251 0
15254 15248 15251 0
-15256 -7910 0
-15256 -14873 0
15256 7910 14873 0
-15257 -15255 0
-15257 -15256 0
15257 15255 15256 0
-15258 -15254 0
-15258 15257 0
15258 15254 -15257 0
-15261 -15255 0
-15261 -15258 0
15261 15255 15258 0
-15263 -7911 0
-15263 -14880 0
15263 7911 14880 0
-15264 -15262 0
-15264 -15263 0
15264 15262 15263 0
-15265 -15261 0
-15265 15264 0
15265 15261 -15264 0
-15268 -15262 0
-15268 -15265 0
15268 15262 15265 0
-15270 -7912 0
-15270 -14887 0
15270 7912 14887 0
-15271 -15269 0
-15271 -15270 0
15271 15269 15270 0
-15272 -15268 0
-15272 15271 0
15272 15268 -15271 0
-15275 -15269 0
-15275 -15272 0
15275 15269 15272 0
-15277 -7913 0
-15277 -14894 0
15277 7913 14894 0
-15278 -15276 0
-15278 -15277 0
15278 15276 15277 0
-15279 -15275 0
-15279 15278 0
15279 15275 -15278 0
-15282 -15276 0
-15282 -15279 0
15282 15276 15279 0
-15284 -7914 0
-15284 -14901 0
15284 7914 14901 0
-15285 -15283 0
-15285 -15284 0
15285 15283 15284 0
-15286 -15282 0
-15286 15285 0
15286 15282 -15285 0
-15289 -15283 0
-15289 -15286 0
15289 15283 15286 0
-15291 -7915 0
-15291 -14908 0
15291 7915 14908 0
-15292 -15290 0
-15292 -15291 0
15292 15290 15291 0
-15293 -15289 0
-15293 15292 0
15293 15289 -15292 0
-15296 -15290 0
-15296 -15293 0
15296 15290 15293 0
-15297 7916 0
-15297 14915 0
15297 -7916 -14915 0
-15298 -7916 0
-15298 -14915 0
15298 7916 14915 0
-15299 -15297 0
-15299 -15298 0
15299 15297 15298 0
-15300 -15296 0
-15300 15299 0
15300 15296 -15299 0
-15301 15296 0
-15301 -15299 0
15301 -15296 15299 0
-15302 -15300 0
-15302 -15301 0
15302 15300 15301 0
-15294 15289 0
-15294 -15292 0
15294 -15289 15292 0
-15295 -15293 0
-15295 -15294 0
15295 15293 15294 0
-15287 15282 0
-15287 -15285 0
15287 -15282 15285 0
-15288 -15286 0
-15288 -15287 0
15288 15286 15287 0
-15280 15275 0
-15280 -15278 0
15280 -15275 15278 0
-15281 -15279 0
-15281 -15280 0
15281 15279 15280 0
-15273 15268 0
-15273 -15271 0
15273 -15268 15271 0
-15274 -15272 0
-15274 -15273 0
15274 15272 15273 0
-15266 15261 0
-15266 -15264 0
15266 -15261 15264 0
-15267 -15265 0
-15267 -15266 0
15267 15265 15266 0
-15252 15247 0
-15252 -15250 0
15252 -15247 15250 0
-15253 -15251 0
-15253 -15252 0
15253 15251 15252 0
-15259 15254 0
-15259 -15257 0
15259 -15254 15257 0
-15260 -15258 0
-15260 -15259 0
15260 15258 15259 0
-15304 -15253 0
-15304 -15260 0
15304 15253 15260 0
-15305 -15267 0
-15305 15304 0
15305 15267 -15304 0
-15306 -15274 0
-15306 15305 0
15306 15274 -15305 0
-15307 -15281 0
-15307 15306 0
15307 15281 -15306 0
-15308 -15288 0
-15308 15307 0
15308 15288 -15307 0
-15309 -15295 0
-15309 15308 0
15309 15295 -15308 0
-15310 -15302 0
-15310 15309 0
15310 15302 -15309 0
-15455 -31 0
-15455 8531 0
15455 31 -8531 0
-15450 -30 0
-15450 8530 0
15450 30 -8530 0
-15445 -29 0
-15445 8529 0
15445 29 -8529 0
-15440 -28 0
-15440 8528 0
15440 28 -8528 0
-15435 -27 0
-15435 8527 0
15435 27 -8527 0
-15430 -26 0
-15430 8526 0
15430 26 -8526 0
-15425 -25 0
-15425 8525 0
15425 25 -8525 0
-15420 -24 0
-15420 8524 0
15420 24 -8524 0
-15415 -23 0
-15415 8523 0
15415 23 -8523 0
-15410 -22 0
-15410 8522 0
15410 22 -8522 0
-15405 -21 0
-15405 8521 0
15405 21 -8521 0
-15400 -20 0
-15400 8520 0
15400 20 -8520 0
-15395 -19 0
-15395 8519 0
15395 19 -8519 0
-15390 -18 0
-15390 8518 0
15390 18 -8518 0
-15385 -17 0
-15385 8517 0
15385 17 -8517 0
-15380 -16 0
-15380 8516 0
15380 16 -8516 0
-15375 -15 0
-15375 8515 0
15375 15 -8515 0
-15370 -14 0
-15370 8514 0
15370 14 -8514 0
-15365 -13 0
-15365 8513 0
15365 13 -8513 0
-15360 -12 0
-15360 8512 0
15360 12 -8512 0
-15355 -11 0
-15355 8511 0
15355 11 -8511 0
-15350 -10 0
-15350 8510 0
15350 10 -8510 0
-15345 -9 0
-15345 8509 0
15345 9 -8509 0
-15340 -8 0
-15340 8508 0
15340 8 -8508 0
-15335 -7 0
-15335 8507 0
15335 7 -8507 0
-15330 -6 0
-15330 8506 0
15330 6 -8506 0
-15325 -5 0
-15325 8505 0
15325 5 -8505 0
-15320 -4 0
-15320 8504 0
15320 4 -8504 0
-15315 -3 0
-15315 8503 0
15315 3 -8503 0
-15311 -2 0
-15311 8502 0
15311 2 -8502 0
-15312 2 0
-15312 -8502 0
15312 -2 8502 0
-15313 -15311 0
-15313 -15312 0
15313 15311 15312 0
-15314 -15311 0
-15314 -15313 0
15314 15311 15313 0
-15316 3 0
-15316 -8503 0
15316 -3 8503 0
-15317 -15315 0
-15317 -15316 0
15317 15315 15316 0
-15318 -15314 0
-15318 15317 0
15318 15314 -15317 0
-15319 -15315 0
-15319 -15318 0
15319 15315 15318 0
-15321 4 0
-15321 -8504 0
15321 -4 8504 0
-15322 -15320 0
-15322 -15321 0
15322 15320 15321 0
-15323 -15319 0
-15323 15322 0
15323 15319 -15322 0
-15324 -15320 0
-15324 -15323 0
15324 15320 15323 0
-15326 5 0
-15326 -8505 0
15326 -5 8505 0
-15327 -15325 0
-15327 -15326 0
15327 15325 15326 0
-15328 -15324 0
-15328 15327 0
15328 15324 -15327 0
-15329 -15325 0
-15329 -15328 0
15329 15325 15328 0
-15331 6 0
-15331 -8506 0
15331 -6 8506 0
-15332 -15330 0
-15332 -15331 0
15332 15330 15331 0
-15333 -15329 0
-15333 15332 0
15333 15329 -15332 0
-15334 -15330 0
-15334 -15333 0
15334 15330 15333 0
-15336 7 0
-15336 -8507 0
15336 -7 8507 0
-15337 -15335 0
-15337 -15336 0
15337 15335 15336 0
-15338 -15334 0
-15338 15337 0
15338 15334 -15337 0
-15339 -15335 0
-15339 -15338 0
15339 15335 15338 0
-15341 8 0
-15341 -8508 0
15341 -8 8508 0
-15342 -15340 0
-15342 -15341 0
15342 15340 15341 0
-15343 -15339 0
-15343 15342 0
15343 15339 -15342 0
-15344 -15340 0
-15344 -15343 0
15344 15340 15343 0
-15346 9 0
-15346 -8509 0
15346 -9 8509 0
-15347 -15345 0
-15347 -15346 0
15347 15345 15346 0
-15348 -15344 0
-15348 15347 0
15348 15344 -15347 0
-15349 -15345 0
-15349 -15348 0
15349 15345 15348 0
-15351 10 0
-15351 -8510 0
15351 -10 8510 0
-15352 -15350 0
-15352 -15351 0
15352 15350 15351 0
-15353 -15349 0
-15353 15352 0
15353 15349 -15352 0
-15354 -15350 0
-15354 -15353 0
15354 15350 15353 0
-15356 11 0
-15356 -8511 0
15356 -11 8511 0
-15357 -15355 0
-15357 -15356 0
15357 15355 15356 0
-15358 -15354 0
-15358 15357 0
15358 15354 -15357 0
-15359 -15355 0
-15359 -15358 0
15359 15355 15358 0
-15361 12 0
-15361 -8512 0
15361 -12 8512 0
-15362 -15360 0
-15362 -15361 0
15362 15360 15361 0
-15363 -15359 0
-15363 15362 0
15363 15359 -15362 0
-15364 -15360 0
-15364 -15363 0
15364 15360 15363 0
-15366 13 0
-15366 -8513 0
15366 -13 8513 0
-15367 -15365 0
-15367 -15366 0
15367 15365 15366 0
-15368 -15364 0
-15368 15367 0
15368 15364 -15367 0
-15369 -15365 0
-15369 -15368 0
15369 15365 15368 0
-15371 14 0
-15371 -8514 0
15371 -14 8514 0
-15372 -15370 0
-15372 -15371 0
15372 15370 15371 0
-15373 -15369 0
-15373 15372 0
15373 15369 -15372 0
-15374 -15370 0
-15374 -15373 0
15374 15370 15373 0
-15376 15 0
-15376 -8515 0
15376 -15 8515 0
-15377 -15375 0
-15377 -15376 0
15377 15375 15376 0
-15378 -15374 0
-15378 15377 0
15378 15374 -15377 0
-15379 -15375 0
-15379 -15378 0
15379 15375 15378 0
-15381 16 0
-15381 -8516 0
15381 -16 8516 0
-15382 -15380 0
-15382 -15381 0
15382 15380 15381 0
-15383 -15379 0
-15383 15382 0
15383 15379 -15382 0
-15384 -15380 0
-15384 -15383 0
15384 15380 15383 0
-15386 17 0
-15386 -8517 0
15386 -17 8517 0
-15387 -15385 0
-15387 -15386 0
15387 15385 15386 0
-15388 -15384 0
-15388 15387 0
15388 15384 -15387 0
-15389 -15385 0
-15389 -15388 0
15389 15385 15388 0
-15391 18 0
-15391 -8518 0
15391 -18 8518 0
-15392 -15390 0
-15392 -15391 0
15392 15390 15391 0
-15393 -15389 0
-15393 15392 0
15393 15389 -15392 0
-15394 -15390 0
-15394 -15393 0
15394 15390 15393 0
-15396 19 0
-15396 -8519 0
15396 -19 8519 0
-15397 -15395 0
-15397 -15396 0
15397 15395 15396 0
-15398 -15394 0
-15398 15397 0
15398 15394 -15397 0
-15399 -15395 0
-15399 -15398 0
15399 15395 15398 0
-15401 20 0
-15401 -8520 0
15401 -20 8520 0
-15402 -15400 0
-15402 -15401 0
15402 15400 15401 0
-15403 -15399 0
-15403 15402 0
15403 15399 -15402 0
-15404 -15400 0
-15404 -15403 0
15404 15400 15403 0
-15406 21 0
-15406 -8521 0
15406 -21 8521 0
-15407 -15405 0
-15407 -15406 0
15407 15405 15406 0
-15408 -15404 0
-15408 15407 0
15408 15404 -15407 0
-15409 -15405 0
-15409 -15408 0
15409 15405 15408 0
-15411 22 0
-15411 -8522 0
15411 -22 8522 0
-15412 -15410 0
-15412 -15411 0
15412 15410 15411 0
-15413 -15409 0
-15413 15412 0
15413 15409 -15412 0
-15414 -15410 0
-15414 -15413 0
15414 15410 15413 0
-15416 23 0
-15416 -8523 0
15416 -23 8523 0
-15417 -15415 0
-15417 -15416 0
15417 15415 15416 0
-15418 -15414 0
-15418 15417 0
15418 15414 -15417 0
-15419 -15415 0
-15419 -15418 0
15419 15415 15418 0
-15421 24 0
-15421 -8524 0
15421 -24 8524 0
-15422 -15420 0
-15422 -15421 0
15422 15420 15421 0
-15423 -15419 0
-15423 15422 0
15423 15419 -15422 0
-15424 -15420 0
-15424 -15423 0
15424 15420 15423 0
-15426 25 0
-15426 -8525 0
15426 -25 8525 0
-15427 -15425 0
-15427 -15426 0
15427 15425 15426 0
-15428 -15424 0
-15428 15427 0
15428 15424 -15427 0
-15429 -15425 0
-15429 -15428 0
15429 15425 15428 0
-15431 26 0
-15431 -8526 0
15431 -26 8526 0
-15432 -15430 0
-15432 -15431 0
15432 15430 15431 0
-15433 -15429 0
-15433 15432 0
15433 15429 -15432 0
-15434 -15430 0
-15434 -15433 0
15434 15430 15433 0
-15436 27 0
-15436 -8527 0
15436 -27 8527 0
-15437 -15435 0
-15437 -15436 0
15437 15435 15436 0
-15438 -15434 0
-15438 15437 0
15438 15434 -15437 0
-15439 -15435 0
-15439 -15438 0
15439 15435 15438 0
-15441 28 0
-15441 -8528 0
15441 -28 8528 0
-15442 -15440 0
-15442 -15441 0
15442 15440 15441 0
-15443 -15439 0
-15443 15442 0
15443 15439 -15442 0
-15444 -15440 0
-15444 -15443 0
15444 15440 15443 0
-15446 29 0
-15446 -8529 0
15446 -29 8529 0
-15447 -15445 0
-15447 -15446 0
15447 15445 15446 0
-15448 -15444 0
-15448 15447 0
15448 15444 -15447 0
-15449 -15445 0
-15449 -15448 0
15449 15445 15448 0
-15451 30 0
-15451 -8530 0
15451 -30 8530 0
-15452 -15450 0
-15452 -15451 0
15452 15450 15451 0
-15453 -15449 0
-15453 15452 0
15453 15449 -15452 0
-15454 -15450 0
-15454 -15453 0
15454 15450 15453 0
-15456 31 0
-15456 -8531 0
15456 -31 8531 0
-15457 -15455 0
-15457 -15456 0
15457 15455 15456 0
-15458 -15454 0
-15458 15457 0
15458 15454 -15457 0
-15459 -15455 0
-15459 -15458 0
15459 15455 15458 0
-15460 -8532 0
-15460 -15459 0
15460 8532 15459 0
-15461 -8532 0
-15461 -15460 0
15461 8532 15460 0
-15462 -8533 0
-15462 -15461 0
15462 8533 15461 0
-15463 -8533 0
-15463 -15462 0
15463 8533 15462 0
-15464 -8534 0
-15464 -15463 0
15464 8534 15463 0
-15465 -8534 0
-15465 -15464 0
15465 8534 15464 0
-15466 -8535 0
-15466 -15465 0
15466 8535 15465 0
-15467 -8535 0
-15467 -15466 0
15467 8535 15466 0
-15468 -8536 0
-15468 -15467 0
15468 8536 15467 0
-15469 -8536 0
-15469 -15468 0
15469 8536 15468 0
-15470 -8537 0
-15470 -15469 0
15470 8537 15469 0
-15471 -8537 0
-15471 -15470 0
15471 8537 15470 0
-15472 -8538 0
-15472 -15471 0
15472 8538 15471 0
-15473 -8538 0
-15473 -15472 0
15473 8538 15472 0
-15474 -8539 0
-15474 -15473 0
15474 8539 15473 0
-15475 -8539 0
-15475 -15474 0
15475 8539 15474 0
-15476 -8540 0
-15476 -15475 0
15476 8540 15475 0
-15477 -8540 0
-15477 -15476 0
15477 8540 15476 0
-15478 -8541 0
-15478 -15477 0
15478 8541 15477 0
-15479 -8541 0
-15479 -15478 0
15479 8541 15478 0
-15480 -8542 0
-15480 -15479 0
15480 8542 15479 0
-15481 -8542 0
-15481 -15480 0
15481 8542 15480 0
-15482 -8543 0
-15482 -15481 0
15482 8543 15481 0
-15483 -8543 0
-15483 -15482 0
15483 8543 15482 0
-15484 -8544 0
-15484 -15483 0
15484 8544 15483 0
-15485 -8544 0
-15485 -15484 0
15485 8544 15484 0
-15486 -8545 0
-15486 -15485 0
15486 8545 15485 0
-15487 -8545 0
-15487 -15486 0
15487 8545 15486 0
-15488 -8546 0
-15488 -15487 0
15488 8546 15487 0
-15489 -8546 0
-15489 -15488 0
15489 8546 15488 0
-15490 -8547 0
-15490 -15489 0
15490 8547 15489 0
-15491 -8547 0
-15491 -15490 0
15491 8547 15490 0
-15492 -8548 0
-15492 -15491 0
15492 8548 15491 0
-15493 -8548 0
-15493 -15492 0
15493 8548 15492 0
-15494 -8549 0
-15494 -15493 0
15494 8549 15493 0
-15495 -8549 0
-15495 -15494 0
15495 8549 15494 0
-15496 -8550 0
-15496 -15495 0
15496 8550 15495 0
-15497 -8550 0
-15497 -15496 0
15497 8550 15496 0
-15498 -8551 0
-15498 -15497 0
15498 8551 15497 0
-15499 -8551 0
-15499 -15498 0
15499 8551 15498 0
-15500 -8552 0
-15500 -15499 0
15500 8552 15499 0
-15501 -8552 0
-15501 -15500 0
15501 8552 15500 0
-15502 -8553 0
-15502 -15501 0
15502 8553 15501 0
-15503 -8553 0
-15503 -15502 0
15503 8553 15502 0
-15504 -8554 0
-15504 -15503 0
15504 8554 15503 0
-15505 -8554 0
-15505 -15504 0
15505 8554 15504 0
-15506 -8555 0
-15506 -15505 0
15506 8555 15505 0
-15507 -8555 0
-15507 -15506 0
15507 8555 15506 0
-15508 -8556 0
-15508 -15507 0
15508 8556 15507 0
-15509 -8556 0
-15509 -15508 0
15509 8556 15508 0
-15510 -8557 0
-15510 -15509 0
15510 8557 15509 0
-15511 -8557 0
-15511 -15510 0
15511 8557 15510 0
-15512 -8558 0
-15512 -15511 0
15512 8558 15511 0
-15513 -8558 0
-15513 -15512 0
15513 8558 15512 0
-15514 -8559 0
-15514 -15513 0
15514 8559 15513 0
-15515 -8559 0
-15515 -15514 0
15515 8559 15514 0
-15516 -8560 0
-15516 -15515 0
15516 8560 15515 0
-15517 -8560 0
-15517 -15516 0
15517 8560 15516 0
-15518 -8561 0
-15518 -15517 0
15518 8561 15517 0
-15519 -8561 0
-15519 -15518 0
15519 8561 15518 0
-15520 -8562 0
-15520 -15519 0
15520 8562 15519 0
-15521 -8562 0
-15521 -15520 0
15521 8562 15520 0
-15522 -8563 0
-15522 -15521 0
15522 8563 15521 0
-15523 -8563 0
-15523 -15522 0
15523 8563 15522 0
-15524 -8564 0
-15524 -15523 0
15524 8564 15523 0
-15525 -8564 0
-15525 -15524 0
15525 8564 15524 0
-15526 -8565 0
-15526 -15525 0
15526 8565 15525 0
-15527 -8565 0
-15527 -15526 0
15527 8565 15526 0
-15528 15310 0
-15528 -15527 0
15528 -15310 15527 0
-15529 15237 0
-15529 -15528 0
15529 -15237 15528 0
-15530 8504 0
-15530 10382 0
15530 -8504 -10382 0
-15531 8504 0
-15531 -15530 0
15531 -8504 15530 0
-15532 -8505 0
-15532 -15531 0
15532 8505 15531 0
-15533 8506 0
-15533 15532 0
15533 -8506 -15532 0
-15534 8506 0
-15534 -15533 0
15534 -8506 15533 0
-15535 -8507 0
-15535 -15534 0
15535 8507 15534 0
-15536 8508 0
-15536 15535 0
15536 -8508 -15535 0
-15537 8508 0
-15537 -15536 0
15537 -8508 15536 0
-15538 -8509 0
-15538 -15537 0
15538 8509 15537 0
-15539 8510 0
-15539 15538 0
15539 -8510 -15538 0
-15540 8510 0
-15540 -15539 0
15540 -8510 15539 0
-15541 -8511 0
-15541 -15540 0
15541 8511 15540 0
-15542 8512 0
-15542 15541 0
15542 -8512 -15541 0
-15543 8512 0
-15543 -15542 0
15543 -8512 15542 0
-15544 -8513 0
-15544 -15543 0
15544 8513 15543 0
-15545 8514 0
-15545 15544 0
15545 -8514 -15544 0
-15546 8514 0
-15546 -15545 0
15546 -8514 15545 0
-15547 -8515 0
-15547 -15546 0
15547 8515 15546 0
-15548 8516 0
-15548 15547 0
15548 -8516 -15547 0
-15549 8516 0
-15549 -15548 0
15549 -8516 15548 0
-15550 -8517 0
-15550 -15549 0
15550 8517 15549 0
-15551 8518 0
-15551 15550 0
15551 -8518 -15550 0
-15552 8518 0
-15552 -15551 0
15552 -8518 15551 0
-15553 -8519 0
-15553 -15552 0
15553 8519 15552 0
-15554 8520 0
-15554 15553 0
15554 -8520 -15553 0
-15555 8520 0
-15555 -15554 0
15555 -8520 15554 0
-15556 -8521 0
-15556 -15555 0
15556 8521 15555 0
-15557 8522 0
-15557 15556 0
15557 -8522 -15556 0
-15558 8522 0
-15558 -15557 0
15558 -8522 15557 0
-15559 -8523 0
-15559 -15558 0
15559 8523 15558 0
-15560 8524 0
-15560 15559 0
15560 -8524 -15559 0
-15561 8524 0
-15561 -15560 0
15561 -8524 15560 0
-15562 -8525 0
-15562 -15561 0
15562 8525 15561 0
-15563 8526 0
-15563 15562 0
15563 -8526 -15562 0
-15564 8526 0
-15564 -15563 0
15564 -8526 15563 0
-15565 -8527 0
-15565 -15564 0
15565 8527 15564 0
-15566 8528 0
-15566 15565 0
15566 -8528 -15565 0
-15567 8528 0
-15567 -15566 0
15567 -8528 15566 0
-15568 -8529 0
-15568 -15567 0
15568 8529 15567 0
-15569 8530 0
-15569 15568 0
15569 -8530 -15568 0
-15570 8530 0
-15570 -15569 0
15570 -8530 15569 0
-15571 -8531 0
-15571 -15570 0
15571 8531 15570 0
-15572 8532 0
-15572 15571 0
15572 -8532 -15571 0
-15573 8532 0
-15573 -15572 0
15573 -8532 15572 0
-15574 -8533 0
-15574 -15573 0
15574 8533 15573 0
-15575 8534 0
-15575 15574 0
15575 -8534 -15574 0
-15576 8534 0
-15576 -15575 0
15576 -8534 15575 0
-15577 -8535 0
-15577 -15576 0
15577 8535 15576 0
-15578 8536 0
-15578 15577 0
15578 -8536 -15577 0
-15579 8536 0
-15579 -15578 0
15579 -8536 15578 0
-15580 -8537 0
-15580 -15579 0
15580 8537 15579 0
-15581 8538 0
-15581 15580 0
15581 -8538 -15580 0
-15582 8538 0
-15582 -15581 0
15582 -8538 15581 0
-15583 -8539 0
-15583 -15582 0
15583 8539 15582 0
-15584 8540 0
-15584 15583 0
15584 -8540 -15583 0
-15585 8540 0
-15585 -15584 0
15585 -8540 15584 0
-15586 -8541 0
-15586 -15585 0
15586 8541 15585 0
-15587 8542 0
-15587 15586 0
15587 -8542 -15586 0
-15588 8542 0
-15588 -15587 0
15588 -8542 15587 0
-15589 -8543 0
-15589 -15588 0
15589 8543 15588 0
-15590 8544 0
-15590 15589 0
15590 -8544 -15589 0
-15591 8544 0
-15591 -15590 0
15591 -8544 15590 0
-15592 -8545 0
-15592 -15591 0
15592 8545 15591 0
-15593 8546 0
-15593 15592 0
15593 -8546 -15592 0
-15594 8546 0
-15594 -15593 0
15594 -8546 15593 0
-15595 -8547 0
-15595 -15594 0
15595 8547 15594 0
-15596 8548 0
-15596 15595 0
15596 -8548 -15595 0
-15597 8548 0
-15597 -15596 0
15597 -8548 15596 0
-15598 -8549 0
-15598 -15597 0
15598 8549 15597 0
-15599 8550 0
-15599 15598 0
15599 -8550 -15598 0
-15600 8550 0
-15600 -15599 0
15600 -8550 15599 0
-15601 -8551 0
-15601 -15600 0
15601 8551 15600 0
-15602 8552 0
-15602 15601 0
15602 -8552 -15601 0
-15603 8552 0
-15603 -15602 0
15603 -8552 15602 0
-15604 -8553 0
-15604 -15603 0
15604 8553 15603 0
-15605 8554 0
-15605 15604 0
15605 -8554 -15604 0
-15606 8554 0
-15606 -15605 0
15606 -8554 15605 0
-15607 -8555 0
-15607 -15606 0
15607 8555 15606 0
-15608 8556 0
-15608 15607 0
15608 -8556 -15607 0
-15609 8556 0
-15609 -15608 0
15609 -8556 15608 0
-15610 -8557 0
-15610 -15609 0
15610 8557 15609 0
-15611 8558 0
-15611 15610 0
15611 -8558 -15610 0
-15612 8558 0
-15612 -15611 0
15612 -8558 15611 0
-15613 -8559 0
-15613 -15612 0
15613 8559 15612 0
-15614 8560 0
-15614 15613 0
15614 -8560 -15613 0
-15615 8560 0
-15615 -15614 0
15615 -8560 15614 0
-15616 -8561 0
-15616 -15615 0
15616 8561 15615 0
-15617 8562 0
-15617 15616 0
15617 -8562 -15616 0
-15618 8562 0
-15618 -15617 0
15618 -8562 15617 0
-15619 -8563 0
-15619 -15618 0
15619 8563 15618 0
-15620 8564 0
-15620 15619 0
15620 -8564 -15619 0
-15621 8564 0
-15621 -15620 0
15621 -8564 15620 0
-15622 -8565 0
-15622 -15621 0
15622 8565 15621 0
-15623 9711 0
-15623 -15622 0
15623 -9711 15622 0
-15624 15529 0
-15624 -15623 0
15624 -15529 15623 0
-15677 9730 0
-15677 15295 0
15677 -9730 -15295 0
-15670 9729 0
-15670 15288 0
15670 -9729 -15288 0
-15663 9728 0
-15663 15281 0
15663 -9728 -15281 0
-15656 9727 0
-15656 15274 0
15656 -9727 -15274 0
-15649 9726 0
-15649 15267 0
15649 -9726 -15267 0
-15642 9725 0
-15642 15260 0
15642 -9725 -15260 0
-15635 9724 0
-15635 15253 0
15635 -9724 -15253 0
-15245 -15238 0
-15245 -15243 0
15245 15238 15243 0
-15246 -15244 0
-15246 -15245 0
15246 15244 15245 0
-15628 9723 0
-15628 15246 0
15628 -9723 -15246 0
-15239 -7907 0
-15239 -14853 0
15239 7907 14853 0
-15240 -15238 0
-15240 -15239 0
15240 15238 15239 0
-15625 9722 0
-15625 15240 0
15625 -9722 -15240 0
-15629 -9723 0
-15629 -15246 0
15629 9723 15246 0
-15630 -15628 0
-15630 -15629 0
15630 15628 15629 0
-15631 15625 0
-15631 15630 0
15631 -15625 -15630 0
-15634 -15628 0
-15634 -15631 0
15634 15628 15631 0
-15636 -9724 0
-15636 -15253 0
15636 9724 15253 0
-15637 -15635 0
-15637 -15636 0
15637 15635 15636 0
-15638 -15634 0
-15638 15637 0
15638 15634 -15637 0
-15641 -15635 0
-15641 -15638 0
15641 15635 15638 0
-15643 -9725 0
-15643 -15260 0
15643 9725 15260 0
-15644 -15642 0
-15644 -15643 0
15644 15642 15643 0
-15645 -15641 0
-15645 15644 0
15645 15641 -15644 0
-15648 -15642 0
-15648 -15645 0
15648 15642 15645 0
-15650 -9726 0
-15650 -15267 0
15650 9726 15267 0
-15651 -15649 0
-15651 -15650 0
15651 15649 15650 0
-15652 -15648 0
-15652 15651 0
15652 15648 -15651 0
-15655 -15649 0
-15655 -15652 0
15655 15649 15652 0
-15657 -9727 0
-15657 -15274 0
15657 9727 15274 0
-15658 -15656 0
-15658 -15657 0
15658 15656 15657 0
-15659 -15655 0
-15659 15658 0
15659 15655 -15658 0
-15662 -15656 0
-15662 -15659 0
15662 15656 15659 0
-15664 -9728 0
-15664 -15281 0
15664 9728 15281 0
-15665 -15663 0
-15665 -15664 0
15665 15663 15664 0
-15666 -15662 0
-15666 15665 0
15666 15662 -15665 0
-15669 -15663 0
-15669 -15666 0
15669 15663 15666 0
-15671 -9729 0
-15671 -15288 0
15671 9729 15288 0
-15672 -15670 0
-15672 -15671 0
15672 15670 15671 0
-15673 -15669 0
-15673 15672 0
15673 15669 -15672 0
-15676 -15670 0
-15676 -15673 0
15676 15670 15673 0
-15678 -9730 0
-15678 -15295 0
15678 9730 15295 0
-15679 -15677 0
-15679 -15678 0
15679 15677 15678 0
-15680 -15676 0
-15680 15679 0
15680 15676 -15679 0
-15683 -15677 0
-15683 -15680 0
15683 15677 15680 0
-15684 9731 0
-15684 15302 0
15684 -9731 -15302 0
-15685 -9731 0
-15685 -15302 0
15685 9731 15302 0
-15686 -15684 0
-15686 -15685 0
15686 15684 15685 0
-15687 -15683 0
-15687 15686 0
15687 15683 -15686 0
-15688 15683 0
-15688 -15686 0
15688 -15683 15686 0
-15689 -15687 0
-15689 -15688 0
15689 15687 15688 0
-15681 15676 0
-15681 -15679 0
15681 -15676 15679 0
-15682 -15680 0
-15682 -15681 0
15682 15680 15681 0
-15674 15669 0
-15674 -15672 0
15674 -15669 15672 0
-15675 -15673 0
-15675 -15674 0
15675 15673 15674 0
-15667 15662 0
-15667 -15665 0
15667 -15662 15665 0
-15668 -15666 0
-15668 -15667 0
15668 15666 15667 0
-15660 15655 0
-15660 -15658 0
15660 -15655 15658 0
-15661 -15659 0
-15661 -15660 0
15661 15659 15660 0
-15653 15648 0
-15653 -15651 0
15653 -15648 15651 0
-15654 -15652 0
-15654 -15653 0
15654 15652 15653 0
-15646 15641 0
-15646 -15644 0
15646 -15641 15644 0
-15647 -15645 0
-15647 -15646 0
15647 15645 15646 0
-15639 15634 0
-15639 -15637 0
15639 -15634 15637 0
-15640 -15638 0
-15640 -15639 0
15640 15638 15639 0
-15626 -9722 0
-15626 -15240 0
15626 9722 15240 0
-15627 -15625 0
-15627 -15626 0
15627 15625 15626 0
-15632 -15625 0
-15632 -15630 0
15632 15625 15630 0
-15633 -15631 0
-15633 -15632 0
15633 15631 15632 0
-15691 -15627 0
-15691 -15633 0
15691 15627 15633 0
-15692 15640 0
-15692 15691 0
15692 -15640 -15691 0
-15693 15640 0
-15693 -15692 0
15693 -15640 15692 0
-15694 -15647 0
-15694 -15693 0
15694 15647 15693 0
-15695 -15654 0
-15695 15694 0
15695 15654 -15694 0
-15696 -15661 0
-15696 15695 0
15696 15661 -15695 0
-15697 -15668 0
-15697 15696 0
15697 15668 -15696 0
-15698 -15675 0
-15698 15697 0
15698 15675 -15697 0
-15699 -15682 0
-15699 15698 0
15699 15682 -15698 0
-15700 -15689 0
-15700 15699 0
15700 15689 -15699 0
-15845 -31 0
-15845 10346 0
15845 31 -10346 0
-15840 -30 0
-15840 10345 0
15840 30 -10345 0
-15835 -29 0
-15835 10344 0
15835 29 -10344 0
-15830 -28 0
-15830 10343 0
15830 28 -10343 0
-15825 -27 0
-15825 10342 0
15825 27 -10342 0
-15820 -26 0
-15820 10341 0
15820 26 -10341 0
-15815 -25 0
-15815 10340 0
15815 25 -10340 0
-15810 -24 0
-15810 10339 0
15810 24 -10339 0
-15805 -23 0
-15805 10338 0
15805 23 -10338 0
-15800 -22 0
-15800 10337 0
15800 22 -10337 0
-15795 -21 0
-15795 10336 0
15795 21 -10336 0
-15790 -20 0
-15790 10335 0
15790 20 -10335 0
-15785 -19 0
-15785 10334 0
15785 19 -10334 0
-15780 -18 0
-15780 10333 0
15780 18 -10333 0
-15775 -17 0
-15775 10332 0
15775 17 -10332 0
-15770 -16 0
-15770 10331 0
15770 16 -10331 0
-15765 -15 0
-15765 10330 0
15765 15 -10330 0
-15760 -14 0
-15760 10329 0
15760 14 -10329 0
-15755 -13 0
-15755 10328 0
15755 13 -10328 0
-15750 -12 0
-15750 10327 0
15750 12 -10327 0
-15745 -11 0
-15745 10326 0
15745 11 -10326 0
-15740 -10 0
-15740 10325 0
15740 10 -10325 0
-15735 -9 0
-15735 10324 0
15735 9 -10324 0
-15730 -8 0
-15730 10323 0
15730 8 -10323 0
-15725 -7 0
-15725 10322 0
15725 7 -10322 0
-15720 -6 0
-15720 10321 0
15720 6 -10321 0
-15715 -5 0
-15715 10320 0
15715 5 -10320 0
-15710 -4 0
-15710 10319 0
15710 4 -10319 0
-15705 -3 0
-15705 10318 0
15705 3 -10318 0
-15701 -2 0
-15701 10317 0
15701 2 -10317 0
-15702 2 0
-15702 -10317 0
15702 -2 10317 0
-15703 -15701 0
-15703 -15702 0
15703 15701 15702 0
-15704 -15701 0
-15704 -15703 0
15704 15701 15703 0
-15706 3 0
-15706 -10318 0
15706 -3 10318 0
-15707 -15705 0
-15707 -15706 0
15707 15705 15706 0
-15708 -15704 0
-15708 15707 0
15708 15704 -15707 0
-15709 -15705 0
-15709 -15708 0
15709 15705 15708 0
-15711 4 0
-15711 -10319 0
15711 -4 10319 0
-15712 -15710 0
-15712 -15711 0
15712 15710 15711 0
-15713 -15709 0
-15713 15712 0
15713 15709 -15712 0
-15714 -15710 0
-15714 -15713 0
15714 15710 15713 0
-15716 5 0
-15716 -10320 0
15716 -5 10320 0
-15717 -15715 0
-15717 -15716 0
15717 15715 15716 0
-15718 -15714 0
-15718 15717 0
15718 15714 -15717 0
-15719 -15715 0
-15719 -15718 0
15719 15715 15718 0
-15721 6 0
-15721 -10321 0
15721 -6 10321 0
-15722 -15720 0
-15722 -15721 0
15722 15720 15721 0
-15723 -15719 0
-15723 15722 0
15723 15719 -15722 0
-15724 -15720 0
-15724 -15723 0
15724 15720 15723 0
-15726 7 0
-15726 -10322 0
15726 -7 10322 0
-15727 -15725 0
-15727 -15726 0
15727 15725 15726 0
-15728 -15724 0
-15728 15727 0
15728 15724 -15727 0
-15729 -15725 0
-15729 -15728 0
15729 15725 15728 0
-15731 8 0
-15731 -10323 0
15731 -8 10323 0
-15732 -15730 0
-15732 -15731 0
15732 15730 15731 0
-15733 -15729 0
-15733 15732 0
15733 15729 -15732 0
-15734 -15730 0
-15734 -15733 0
15734 15730 15733 0
-15736 9 0
-15736 -10324 0
15736 -9 10324 0
-15737 -15735 0
-15737 -15736 0
15737 15735 15736 0
-15738 -15734 0
-15738 15737 0
15738 15734 -15737 0
-15739 -15735 0
-15739 -15738 0
15739 15735 15738 0
-15741 10 0
-15741 -10325 0
15741 -10 10325 0
-15742 -15740 0
-15742 -15741 0
15742 15740 15741 0
-15743 -15739 0
-15743 15742 0
15743 15739 -15742 0
-15744 -15740 0
-15744 -15743 0
15744 15740 15743 0
-15746 11 0
-15746 -10326 0
15746 -11 10326 0
-15747 -15745 0
-15747 -15746 0
15747 15745 15746 0
-15748 -15744 0
-15748 15747 0
15748 15744 -15747 0
-15749 -15745 0
-15749 -15748 0
15749 15745 15748 0
-15751 12 0
-15751 -10327 0
15751 -12 10327 0
-15752 -15750 0
-15752 -15751 0
15752 15750 15751 0
-15753 -15749 0
-15753 15752 0
15753 15749 -15752 0
-15754 -15750 0
-15754 -15753 0
15754 15750 15753 0
-15756 13 0
-15756 -10328 0
15756 -13 10328 0
-15757 -15755 0
-15757 -15756 0
15757 15755 15756 0
-15758 -15754 0
-15758 15757 0
15758 15754 -15757 0
-15759 -15755 0
-15759 -15758 0
15759 15755 15758 0
-15761 14 0
-15761 -10329 0
15761 -14 10329 0
-15762 -15760 0
-15762 -15761 0
15762 15760 15761 0
-15763 -15759 0
-15763 15762 0
15763 15759 -15762 0
-15764 -15760 0
-15764 -15763 0
15764 15760 15763 0
-15766 15 0
-15766 -10330 0
15766 -15 10330 0
-15767 -15765 0
-15767 -15766 0
15767 15765 15766 0
-15768 -15764 0
-15768 15767 0
15768 15764 -15767 0
-15769 -15765 0
-15769 -15768 0
15769 15765 15768 0
-15771 16 0
-15771 -10331 0
15771 -16 10331 0
-15772 -15770 0
-15772 -15771 0
15772 15770 15771 0
-15773 -15769 0
-15773 15772 0
15773 15769 -15772 0
-15774 -15770 0
-15774 -15773 0
15774 15770 15773 0
-15776 17 0
-15776 -10332 0
15776 -17 10332 0
-15777 -15775 0
-15777 -15776 0
15777 15775 15776 0
-15778 -15774 0
-15778 15777 0
15778 15774 -15777 0
-15779 -15775 0
-15779 -15778 0
15779 15775 15778 0
-15781 18 0
-15781 -10333 0
15781 -18 10333 0
-15782 -15780 0
-15782 -15781 0
15782 15780 15781 0
-15783 -15779 0
-15783 15782 0
15783 15779 -15782 0
-15784 -15780 0
-15784 -15783 0
15784 15780 15783 0
-15786 19 0
-15786 -10334 0
15786 -19 10334 0
-15787 -15785 0
-15787 -15786 0
15787 15785 15786 0
-15788 -15784 0
-15788 15787 0
15788 15784 -15787 0
-15789 -15785 0
-15789 -15788 0
15789 15785 15788 0
-15791 20 0
-15791 -10335 0
15791 -20 10335 0
-15792 -15790 0
-15792 -15791 0
15792 15790 15791 0
-15793 -15789 0
-15793 15792 0
15793 15789 -15792 0
-15794 -15790 0
-15794 -15793 0
15794 15790 15793 0
-15796 21 0
-15796 -10336 0
15796 -21 10336 0
-15797 -15795 0
-15797 -15796 0
15797 15795 15796 0
-15798 -15794 0
-15798 15797 0
15798 15794 -15797 0
-15799 -15795 0
-15799 -15798 0
15799 15795 15798 0
-15801 22 0
-15801 -10337 0
15801 -22 10337 0
-15802 -15800 0
-15802 -15801 0
15802 15800 15801 0
-15803 -15799 0
-15803 15802 0
15803 15799 -15802 0
-15804 -15800 0
-15804 -15803 0
15804 15800 15803 0
-15806 23 0
-15806 -10338 0
15806 -23 10338 0
-15807 -15805 0
-15807 -15806 0
15807 15805 15806 0
-15808 -15804 0
-15808 15807 0
15808 15804 -15807 0
-15809 -15805 0
-15809 -15808 0
15809 15805 15808 0
-15811 24 0
-15811 -10339 0
15811 -24 10339 0
-15812 -15810 0
-15812 -15811 0
15812 15810 15811 0
-15813 -15809 0
-15813 15812 0
15813 15809 -15812 0
-15814 -15810 0
-15814 -15813 0
15814 15810 15813 0
-15816 25 0
-15816 -10340 0
15816 -25 10340 0
-15817 -15815 0
-15817 -15816 0
15817 15815 15816 0
-15818 -15814 0
-15818 15817 0
15818 15814 -15817 0
-15819 -15815 0
-15819 -15818 0
15819 15815 15818 0
-15821 26 0
-15821 -10341 0
15821 -26 10341 0
-15822 -15820 0
-15822 -15821 0
15822 15820 15821 0
-15823 -15819 0
-15823 15822 0
15823 15819 -15822 0
-15824 -15820 0
-15824 -15823 0
15824 15820 15823 0
-15826 27 0
-15826 -10342 0
15826 -27 10342 0
-15827 -15825 0
-15827 -15826 0
15827 15825 15826 0
-15828 -15824 0
-15828 15827 0
15828 15824 -15827 0
-15829 -15825 0
-15829 -15828 0
15829 15825 15828 0
-15831 28 0
-15831 -10343 0
15831 -28 10343 0
-15832 -15830 0
-15832 -15831 0
15832 15830 15831 0
-15833 -15829 0
-15833 15832 0
15833 15829 -15832 0
-15834 -15830 0
-15834 -15833 0
15834 15830 15833 0
-15836 29 0
-15836 -10344 0
15836 -29 10344 0
-15837 -15835 0
-15837 -15836 0
15837 15835 15836 0
-15838 -15834 0
-15838 15837 0
15838 15834 -15837 0
-15839 -15835 0
-15839 -15838 0
15839 15835 15838 0
-15841 30 0
-15841 -10345 0
15841 -30 10345 0
-15842 -15840 0
-15842 -15841 0
15842 15840 15841 0
-15843 -15839 0
-15843 15842 0
15843 15839 -15842 0
-15844 -15840 0
-15844 -15843 0
15844 15840 15843 0
-15846 31 0
-15846 -10346 0
15846 -31 10346 0
-15847 -15845 0
-15847 -15846 0
15847 15845 15846 0
-15848 -15844 0
-15848 15847 0
15848 15844 -15847 0
-15849 -15845 0
-15849 -15848 0
15849 15845 15848 0
-15850 -10347 0
-15850 -15849 0
15850 10347 15849 0
-15851 -10347 0
-15851 -15850 0
15851 10347 15850 0
-15852 -10348 0
-15852 -15851 0
15852 10348 15851 0
-15853 -10348 0
-15853 -15852 0
15853 10348 15852 0
-15854 -10349 0
-15854 -15853 0
15854 10349 15853 0
-15855 -10349 0
-15855 -15854 0
15855 10349 15854 0
-15856 -10350 0
-15856 -15855 0
15856 10350 15855 0
-15857 -10350 0
-15857 -15856 0
15857 10350 15856 0
-15858 -10351 0
-15858 -15857 0
15858 10351 15857 0
-15859 -10351 0
-15859 -15858 0
15859 10351 15858 0
-15860 -10352 0
-15860 -15859 0
15860 10352 15859 0
-15861 -10352 0
-15861 -15860 0
15861 10352 15860 0
-15862 -10353 0
-15862 -15861 0
15862 10353 15861 0
-15863 -10353 0
-15863 -15862 0
15863 10353 15862 0
-15864 -10354 0
-15864 -15863 0
15864 10354 15863 0
-15865 -10354 0
-15865 -15864 0
15865 10354 15864 0
-15866 -10355 0
-15866 -15865 0
15866 10355 15865 0
-15867 -10355 0
-15867 -15866 0
15867 10355 15866 0
-15868 -10356 0
-15868 -15867 0
15868 10356 15867 0
-15869 -10356 0
-15869 -15868 0
15869 10356 15868 0
-15870 -10357 0
-15870 -15869 0
15870 10357 15869 0
-15871 -10357 0
-15871 -15870 0
15871 10357 15870 0
-15872 -10358 0
-15872 -15871 0
15872 10358 15871 0
-15873 -10358 0
-15873 -15872 0
15873 10358 15872 0
-15874 -10359 0
-15874 -15873 0
15874 10359 15873 0
-15875 -10359 0
-15875 -15874 0
15875 10359 15874 0
-15876 -10360 0
-15876 -15875 0
15876 10360 15875 0
-15877 -10360 0
-15877 -15876 0
15877 10360 15876 0
-15878 -10361 0
-15878 -15877 0
15878 10361 15877 0
-15879 -10361 0
-15879 -15878 0
15879 10361 15878 0
-15880 -10362 0
-15880 -15879 0
15880 10362 15879 0
-15881 -10362 0
-15881 -15880 0
15881 10362 15880 0
-15882 -10363 0
-15882 -15881 0
15882 10363 15881 0
-15883 -10363 0
-15883 -15882 0
15883 10363 15882 0
-15884 -10364 0
-15884 -15883 0
15884 10364 15883 0
-15885 -10364 0
-15885 -15884 0
15885 10364 15884 0
-15886 -10365 0
-15886 -15885 0
15886 10365 15885 0
-15887 -10365 0
-15887 -15886 0
15887 10365 15886 0
-15888 -10366 0
-15888 -15887 0
15888 10366 15887 0
-15889 -10366 0
-15889 -15888 0
15889 10366 15888 0
-15890 -10367 0
-15890 -15889 0
15890 10367 15889 0
-15891 -10367 0
-15891 -15890 0
15891 10367 15890 0
-15892 -10368 0
-15892 -15891 0
15892 10368 15891 0
-15893 -10368 0
-15893 -15892 0
15893 10368 15892 0
-15894 -10369 0
-15894 -15893 0
15894 10369 15893 0
-15895 -10369 0
-15895 -15894 0
15895 10369 15894 0
-15896 -10370 0
-15896 -15895 0
15896 10370 15895 0
-15897 -10370 0
-15897 -15896 0
15897 10370 15896 0
-15898 -10371 0
-15898 -15897 0
15898 10371 15897 0
-15899 -10371 0
-15899 -15898 0
15899 10371 15898 0
-15900 -10372 0
-15900 -15899 0
15900 10372 15899 0
-15901 -10372 0
-15901 -15900 0
15901 10372 15900 0
-15902 -10373 0
-15902 -15901 0
15902 10373 15901 0
-15903 -10373 0
-15903 -15902 0
15903 10373 15902 0
-15904 -10374 0
-15904 -15903 0
15904 10374 15903 0
-15905 -10374 0
-15905 -15904 0
15905 10374 15904 0
-15906 -10375 0
-15906 -15905 0
15906 10375 15905 0
-15907 -10375 0
-15907 -15906 0
15907 10375 15906 0
-15908 -10376 0
-15908 -15907 0
15908 10376 15907 0
-15909 -10376 0
-15909 -15908 0
15909 10376 15908 0
-15910 -10377 0
-15910 -15909 0
15910 10377 15909 0
-15911 -10377 0
-15911 -15910 0
15911 10377 15910 0
-15912 -10378 0
-15912 -15911 0
15912 10378 15911 0
-15913 -10378 0
-15913 -15912 0
15913 10378 15912 0
-15914 -10379 0
-15914 -15913 0
15914 10379 15913 0
-15915 -10379 0
-15915 -15914 0
15915 10379 15914 0
-15916 -10380 0
-15916 -15915 0
15916 10380 15915 0
-15917 -10380 0
-15917 -15916 0
15917 10380 15916 0
-15918 15700 0
-15918 -15917 0
15918 -15700 15917 0
-15919 15624 0
-15919 -15918 0
15919 -15624 15918 0
-15920 10319 0
-15920 12197 0
15920 -10319 -12197 0
-15921 10319 0
-15921 -15920 0
15921 -10319 15920 0
-15922 -10320 0
-15922 -15921 0
15922 10320 15921 0
-15923 10321 0
-15923 15922 0
15923 -10321 -15922 0
-15924 10321 0
-15924 -15923 0
15924 -10321 15923 0
-15925 -10322 0
-15925 -15924 0
15925 10322 15924 0
-15926 10323 0
-15926 15925 0
15926 -10323 -15925 0
-15927 10323 0
-15927 -15926 0
15927 -10323 15926 0
-15928 -10324 0
-15928 -15927 0
15928 10324 15927 0
-15929 10325 0
-15929 15928 0
15929 -10325 -15928 0
-15930 10325 0
-15930 -15929 0
15930 -10325 15929 0
-15931 -10326 0
-15931 -15930 0
15931 10326 15930 0
-15932 10327 0
-15932 15931 0
15932 -10327 -15931 0
-15933 10327 0
-15933 -15932 0
15933 -10327 15932 0
-15934 -10328 0
-15934 -15933 0
15934 10328 15933 0
-15935 10329 0
-15935 15934 0
15935 -10329 -15934 0
-15936 10329 0
-15936 -15935 0
15936 -10329 15935 0
-15937 -10330 0
-15937 -15936 0
15937 10330 15936 0
-15938 10331 0
-15938 15937 0
15938 -10331 -15937 0
-15939 10331 0
-15939 -15938 0
15939 -10331 15938 0
-15940 -10332 0
-15940 -15939 0
15940 10332 15939 0
-15941 10333 0
-15941 15940 0
15941 -10333 -15940 0
-15942 10333 0
-15942 -15941 0
15942 -10333 15941 0
-15943 -10334 0
-15943 -15942 0
15943 10334 15942 0
-15944 10335 0
-15944 15943 0
15944 -10335 -15943 0
-15945 10335 0
-15945 -15944 0
15945 -10335 15944 0
-15946 -10336 0
-15946 -15945 0
15946 10336 15945 0
-15947 10337 0
-15947 15946 0
15947 -10337 -15946 0
-15948 10337 0
-15948 -15947 0
15948 -10337 15947 0
-15949 -10338 0
-15949 -15948 0
15949 10338 15948 0
-15950 10339 0
-15950 15949 0
15950 -10339 -15949 0
-15951 10339 0
-15951 -15950 0
15951 -10339 15950 0
-15952 -10340 0
-15952 -15951 0
15952 10340 15951 0
-15953 10341 0
-15953 15952 0
15953 -10341 -15952 0
-15954 10341 0
-15954 -15953 0
15954 -10341 15953 0
-15955 -10342 0
-15955 -15954 0
15955 10342 15954 0
-15956 10343 0
-15956 15955 0
15956 -10343 -15955 0
-15957 10343 0
-15957 -15956 0
15957 -10343 15956 0
-15958 -10344 0
-15958 -15957 0
15958 10344 15957 0
-15959 10345 0
-15959 15958 0
15959 -10345 -15958 0
-15960 10345 0
-15960 -15959 0
15960 -10345 15959 0
-15961 -10346 0
-15961 -15960 0
15961 10346 15960 0
-15962 10347 0
-15962 15961 0
15962 -10347 -15961 0
-15963 10347 0
-15963 -15962 0
15963 -10347 15962 0
-15964 -10348 0
-15964 -15963 0
15964 10348 15963 0
-15965 10349 0
-15965 15964 0
15965 -10349 -15964 0
-15966 10349 0
-15966 -15965 0
15966 -10349 15965 0
-15967 -10350 0
-15967 -15966 0
15967 10350 15966 0
-15968 10351 0
-15968 15967 0
15968 -10351 -15967 0
-15969 10351 0
-15969 -15968 0
15969 -10351 15968 0
-15970 -10352 0
-15970 -15969 0
15970 10352 15969 0
-15971 10353 0
-15971 15970 0
15971 -10353 -15970 0
-15972 10353 0
-15972 -15971 0
15972 -10353 15971 0
-15973 -10354 0
-15973 -15972 0
15973 10354 15972 0
-15974 10355 0
-15974 15973 0
15974 -10355 -15973 0
-15975 10355 0
-15975 -15974 0
15975 -10355 15974 0
-15976 -10356 0
-15976 -15975 0
15976 10356 15975 0
-15977 10357 0
-15977 15976 0
15977 -10357 -15976 0
-15978 10357 0
-15978 -15977 0
15978 -10357 15977 0
-15979 -10358 0
-15979 -15978 0
15979 10358 15978 0
-15980 10359 0
-15980 15979 0
15980 -10359 -15979 0
-15981 10359 0
-15981 -15980 0
15981 -10359 15980 0
-15982 -10360 0
-15982 -15981 0
15982 10360 15981 0
-15983 10361 0
-15983 15982 0
15983 -10361 -15982 0
-15984 10361 0
-15984 -15983 0
15984 -10361 15983 0
-15985 -10362 0
-15985 -15984 0
15985 10362 15984 0
-15986 10363 0
-15986 15985 0
15986 -10363 -15985 0
-15987 10363 0
-15987 -15986 0
15987 -10363 15986 0
-15988 -10364 0
-15988 -15987 0
15988 10364 15987 0
-15989 10365 0
-15989 15988 0
15989 -10365 -15988 0
-15990 10365 0
-15990 -15989 0
15990 -10365 15989 0
-15991 -10366 0
-15991 -15990 0
15991 10366 15990 0
-15992 10367 0
-15992 15991 0
15992 -10367 -15991 0
-15993 10367 0
-15993 -15992 0
15993 -10367 15992 0
-15994 -10368 0
-15994 -15993 0
15994 10368 15993 0
-15995 10369 0
-15995 15994 0
15995 -10369 -15994 0
-15996 10369 0
-15996 -15995 0
15996 -10369 15995 0
-15997 -10370 0
-15997 -15996 0
15997 10370 15996 0
-15998 10371 0
-15998 15997 0
15998 -10371 -15997 0
-15999 10371 0
-15999 -15998 0
15999 -10371 15998 0
-16000 -10372 0
-16000 -15999 0
16000 10372 15999 0
-16001 10373 0
-16001 16000 0
16001 -10373 -16000 0
-16002 10373 0
-16002 -16001 0
16002 -10373 16001 0
-16003 -10374 0
-16003 -16002 0
16003 10374 16002 0
-16004 10375 0
-16004 16003 0
16004 -10375 -16003 0
-16005 10375 0
-16005 -16004 0
16005 -10375 16004 0
-16006 -10376 0
-16006 -16005 0
16006 10376 16005 0
-16007 10377 0
-16007 16006 0
16007 -10377 -16006 0
-16008 10377 0
-16008 -16007 0
16008 -10377 16007 0
-16009 -10378 0
-16009 -16008 0
16009 10378 16008 0
-16010 10379 0
-16010 16009 0
16010 -10379 -16009 0
-16011 10379 0
-16011 -16010 0
16011 -10379 16010 0
-16012 -10380 0
-16012 -16011 0
16012 10380 16011 0
-16013 11526 0
-16013 -16012 0
16013 -11526 16012 0
-16014 15919 0
-16014 -16013 0
16014 -15919 16013 0
-16067 11545 0
-16067 15682 0
16067 -11545 -15682 0
-16060 11544 0
-16060 15675 0
16060 -11544 -15675 0
-16053 11543 0
-16053 15668 0
16053 -11543 -15668 0
-16046 11542 0
-16046 15661 0
16046 -11542 -15661 0
-16039 11541 0
-16039 15654 0
16039 -11541 -15654 0
-16032 11540 0
-16032 15647 0
16032 -11540 -15647 0
-16025 11539 0
-16025 15640 0
16025 -11539 -15640 0
-16018 11538 0
-16018 15633 0
16018 -11538 -15633 0
-16015 11537 0
-16015 15627 0
16015 -11537 -15627 0
-16019 -11538 0
-16019 -15633 0
16019 11538 15633 0
-16020 -16018 0
-16020 -16019 0
16020 16018 16019 0
-16021 16015 0
-16021 16020 0
16021 -16015 -16020 0
-16024 -16018 0
-16024 -16021 0
16024 16018 16021 0
-16026 -11539 0
-16026 -15640 0
16026 11539 15640 0
-16027 -16025 0
-16027 -16026 0
16027 16025 16026 0
-16028 -16024 0
-16028 16027 0
16028 16024 -16027 0
-16031 -16025 0
-16031 -16028 0
16031 16025 16028 0
-16033 -11540 0
-16033 -15647 0
16033 11540 15647 0
-16034 -16032 0
-16034 -16033 0
16034 16032 16033 0
-16035 -16031 0
-16035 16034 0
16035 16031 -16034 0
-16038 -16032 0
-16038 -16035 0
16038 16032 16035 0
-16040 -11541 0
-16040 -15654 0
16040 11541 15654 0
-16041 -16039 0
-16041 -16040 0
16041 16039 16040 0
-16042 -16038 0
-16042 16041 0
16042 16038 -16041 0
-16045 -16039 0
-16045 -16042 0
16045 16039 16042 0
-16047 -11542 0
-16047 -15661 0
16047 11542 15661 0
-16048 -16046 0
-16048 -16047 0
16048 16046 16047 0
-16049 -16045 0
-16049 16048 0
16049 16045 -16048 0
-16052 -16046 0
-16052 -16049 0
16052 16046 16049 0
-16054 -11543 0
-16054 -15668 0
16054 11543 15668 0
-16055 -16053 0
-16055 -16054 0
16055 16053 16054 0
-16056 -16052 0
-16056 16055 0
16056 16052 -16055 0
-16059 -16053 0
-16059 -16056 0
16059 16053 16056 0
-16061 -11544 0
-16061 -15675 0
16061 11544 15675 0
-16062 -16060 0
-16062 -16061 0
16062 16060 16061 0
-16063 -16059 0
-16063 16062 0
16063 16059 -16062 0
-16066 -16060 0
-16066 -16063 0
16066 16060 16063 0
-16068 -11545 0
-16068 -15682 0
16068 11545 15682 0
-16069 -16067 0
-16069 -16068 0
16069 16067 16068 0
-16070 -16066 0
-16070 16069 0
16070 16066 -16069 0
-16073 -16067 0
-16073 -16070 0
16073 16067 16070 0
-16074 11546 0
-16074 15689 0
16074 -11546 -15689 0
-16075 -11546 0
-16075 -15689 0
16075 11546 15689 0
-16076 -16074 0
-16076 -16075 0
16076 16074 16075 0
-16077 -16073 0
-16077 16076 0
16077 16073 -16076 0
-16078 16073 0
-16078 -16076 0
16078 -16073 16076 0
-16079 -16077 0
-16079 -16078 0
16079 16077 16078 0
-16071 16066 0
-16071 -16069 0
16071 -16066 16069 0
-16072 -16070 0
-16072 -16071 0
16072 16070 16071 0
-16064 16059 0
-16064 -16062 0
16064 -16059 16062 0
-16065 -16063 0
-16065 -16064 0
16065 16063 16064 0
-16057 16052 0
-16057 -16055 0
16057 -16052 16055 0
-16058 -16056 0
-16058 -16057 0
16058 16056 16057 0
-16050 16045 0
-16050 -16048 0
16050 -16045 16048 0
-16051 -16049 0
-16051 -16050 0
16051 16049 16050 0
-16043 16038 0
-16043 -16041 0
16043 -16038 16041 0
-16044 -16042 0
-16044 -16043 0
16044 16042 16043 0
-16036 16031 0
-16036 -16034 0
16036 -16031 16034 0
-16037 -16035 0
-16037 -16036 0
16037 16035 16036 0
-16029 16024 0
-16029 -16027 0
16029 -16024 16027 0
-16030 -16028 0
-16030 -16029 0
16030 16028 16029 0
-16022 -16015 0
-16022 -16020 0
16022 16015 16020 0
-16023 -16021 0
-16023 -16022 0
16023 16021 16022 0
-16081 -16023 0
-16081 16030 0
16081 16023 -16030 0
-16082 16030 0
-16082 -16081 0
16082 -16030 16081 0
-16083 -16037 0
-16083 -16082 0
16083 16037 16082 0
-16084 -16044 0
-16084 16083 0
16084 16044 -16083 0
-16085 -16051 0
-16085 16084 0
16085 16051 -16084 0
-16086 -16058 0
-16086 16085 0
16086 16058 -16085 0
-16087 -16065 0
-16087 16086 0
16087 16065 -16086 0
-16088 -16072 0
-16088 16087 0
16088 16072 -16087 0
-16089 -16079 0
-16089 16088 0
16089 16079 -16088 0
-16234 -31 0
-16234 12161 0
16234 31 -12161 0
-16229 -30 0
-16229 12160 0
16229 30 -12160 0
-16224 -29 0
-16224 12159 0
16224 29 -12159 0
-16219 -28 0
-16219 12158 0
16219 28 -12158 0
-16214 -27 0
-16214 12157 0
16214 27 -12157 0
-16209 -26 0
-16209 12156 0
16209 26 -12156 0
-16204 -25 0
-16204 12155 0
16204 25 -12155 0
-16199 -24 0
-16199 12154 0
16199 24 -12154 0
-16194 -23 0
-16194 12153 0
16194 23 -12153 0
-16189 -22 0
-16189 12152 0
16189 22 -12152 0
-16184 -21 0
-16184 12151 0
16184 21 -12151 0
-16179 -20 0
-16179 12150 0
16179 20 -12150 0
-16174 -19 0
-16174 12149 0
16174 19 -12149 0
-16169 -18 0
-16169 12148 0
16169 18 -12148 0
-16164 -17 0
-16164 12147 0
16164 17 -12147 0
-16159 -16 0
-16159 12146 0
16159 16 -12146 0
-16154 -15 0
-16154 12145 0
16154 15 -12145 0
-16149 -14 0
-16149 12144 0
16149 14 -12144 0
-16144 -13 0
-16144 12143 0
16144 13 -12143 0
-16139 -12 0
-16139 12142 0
16139 12 -12142 0
-16134 -11 0
-16134 12141 0
16134 11 -12141 0
-16129 -10 0
-16129 12140 0
16129 10 -12140 0
-16124 -9 0
-16124 12139 0
16124 9 -12139 0
-16119 -8 0
-16119 12138 0
16119 8 -12138 0
-16114 -7 0
-16114 12137 0
16114 7 -12137 0
-16109 -6 0
-16109 12136 0
16109 6 -12136 0
-16104 -5 0
-16104 12135 0
16104 5 -12135 0
-16099 -4 0
-16099 12134 0
16099 4 -12134 0
-16094 -3 0
-16094 12133 0
16094 3 -12133 0
-16090 -2 0
-16090 12132 0
16090 2 -12132 0
-16091 2 0
-16091 -12132 0
16091 -2 12132 0
-16092 -16090 0
-16092 -16091 0
16092 16090 16091 0
-16093 -16090 0
-16093 -16092 0
16093 16090 16092 0
-16095 3 0
-16095 -12133 0
16095 -3 12133 0
-16096 -16094 0
-16096 -16095 0
16096 16094 16095 0
-16097 -16093 0
-16097 16096 0
16097 16093 -16096 0
-16098 -16094 0
-16098 -16097 0
16098 16094 16097 0
-16100 4 0
-16100 -12134 0
16100 -4 12134 0
-16101 -16099 0
-16101 -16100 0
16101 16099 16100 0
-16102 -16098 0
-16102 16101 0
16102 16098 -16101 0
-16103 -16099 0
-16103 -16102 0
16103 16099 16102 0
-16105 5 0
-16105 -12135 0
16105 -5 12135 0
-16106 -16104 0
-16106 -16105 0
16106 16104 16105 0
-16107 -16103 0
-16107 16106 0
16107 16103 -16106 0
-16108 -16104 0
-16108 -16107 0
16108 16104 16107 0
-16110 6 0
-16110 -12136 0
16110 -6 12136 0
-16111 -16109 0
-16111 -16110 0
16111 16109 16110 0
-16112 -16108 0
-16112 16111 0
16112 16108 -16111 0
-16113 -16109 0
-16113 -16112 0
16113 16109 16112 0
-16115 7 0
-16115 -12137 0
16115 -7 12137 0
-16116 -16114 0
-16116 -16115 0
16116 16114 16115 0
-16117 -16113 0
-16117 16116 0
16117 16113 -16116 0
-16118 -16114 0
-16118 -16117 0
16118 16114 16117 0
-16120 8 0
-16120 -12138 0
16120 -8 12138 0
-16121 -16119 0
-16121 -16120 0
16121 16119 16120 0
-16122 -16118 0
-16122 16121 0
16122 16118 -16121 0
-16123 -16119 0
-16123 -16122 0
16123 16119 16122 0
-16125 9 0
-16125 -12139 0
16125 -9 12139 0
-16126 -16124 0
-16126 -16125 0
16126 16124 16125 0
-16127 -16123 0
-16127 16126 0
16127 16123 -16126 0
-16128 -16124 0
-16128 -16127 0
16128 16124 16127 0
-16130 10 0
-16130 -12140 0
16130 -10 12140 0
-16131 -16129 0
-16131 -16130 0
16131 16129 16130 0
-16132 -16128 0
-16132 16131 0
16132 16128 -16131 0
-16133 -16129 0
-16133 -16132 0
16133 16129 16132 0
-16135 11 0
-16135 -12141 0
16135 -11 12141 0
-16136 -16134 0
-16136 -16135 0
16136 16134 16135 0
-16137 -16133 0
-16137 16136 0
16137 16133 -16136 0
-16138 -16134 0
-16138 -16137 0
16138 16134 16137 0
-16140 12 0
-16140 -12142 0
16140 -12 12142 0
-16141 -16139 0
-16141 -16140 0
16141 16139 16140 0
-16142 -16138 0
-16142 16141 0
16142 16138 -16141 0
-16143 -16139 0
-16143 -16142 0
16143 16139 16142 0
-16145 13 0
-16145 -12143 0
16145 -13 12143 0
-16146 -16144 0
-16146 -16145 0
16146 16144 16145 0
-16147 -16143 0
-16147 16146 0
16147 16143 -16146 0
-16148 -16144 0
-16148 -16147 0
16148 16144 16147 0
-16150 14 0
-16150 -12144 0
16150 -14 12144 0
-16151 -16149 0
-16151 -16150 0
16151 16149 16150 0
-16152 -16148 0
-16152 16151 0
16152 16148 -16151 0
-16153 -16149 0
-16153 -16152 0
16153 16149 16152 0
-16155 15 0
-16155 -12145 0
16155 -15 12145 0
-16156 -16154 0
-16156 -16155 0
16156 16154 16155 0
-16157 -16153 0
-16157 16156 0
16157 16153 -16156 0
-16158 -16154 0
-16158 -16157 0
16158 16154 16157 0
-16160 16 0
-16160 -12146 0
16160 -16 12146 0
-16161 -16159 0
-16161 -16160 0
16161 16159 16160 0
-16162 -16158 0
-16162 16161 0
16162 16158 -16161 0
-16163 -16159 0
-16163 -16162 0
16163 16159 16162 0
-16165 17 0
-16165 -12147 0
16165 -17 12147 0
-16166 -16164 0
-16166 -16165 0
16166 16164 16165 0
-16167 -16163 0
-16167 16166 0
16167 16163 -16166 0
-16168 -16164 0
-16168 -16167 0
16168 16164 16167 0
-16170 18 0
-16170 -12148 0
16170 -18 12148 0
-16171 -16169 0
-16171 -16170 0
16171 16169 16170 0
-16172 -16168 0
-16172 16171 0
16172 16168 -16171 0
-16173 -16169 0
-16173 -16172 0
16173 16169 16172 0
-16175 19 0
-16175 -12149 0
16175 -19 12149 0
-16176 -16174 0
-16176 -16175 0
16176 16174 16175 0
-16177 -16173 0
-16177 16176 0
16177 16173 -16176 0
-16178 -16174 0
-16178 -16177 0
16178 16174 16177 0
-16180 20 0
-16180 -12150 0
16180 -20 12150 0
-16181 -16179 0
-16181 -16180 0
16181 16179 16180 0
-16182 -16178 0
-16182 16181 0
16182 16178 -16181 0
-16183 -16179 0
-16183 -16182 0
16183 16179 16182 0
-16185 21 0
-16185 -12151 0
16185 -21 12151 0
-16186 -16184 0
-16186 -16185 0
16186 16184 16185 0
-16187 -16183 0
-16187 16186 0
16187 16183 -16186 0
-16188 -16184 0
-16188 -16187 0
16188 16184 16187 0
-16190 22 0
-16190 -12152 0
16190 -22 12152 0
-16191 -16189 0
-16191 -16190 0
16191 16189 16190 0
-16192 -16188 0
-16192 16191 0
16192 16188 -16191 0
-16193 -16189 0
-16193 -16192 0
16193 16189 16192 0
-16195 23 0
-16195 -12153 0
16195 -23 12153 0
-16196 -16194 0
-16196 -16195 0
16196 16194 16195 0
-16197 -16193 0
-16197 16196 0
16197 16193 -16196 0
-16198 -16194 0
-16198 -16197 0
16198 16194 16197 0
-16200 24 0
-16200 -12154 0
16200 -24 12154 0
-16201 -16199 0
-16201 -16200 0
16201 16199 16200 0
-16202 -16198 0
-16202 16201 0
16202 16198 -16201 0
-16203 -16199 0
-16203 -16202 0
16203 16199 16202 0
-16205 25 0
-16205 -12155 0
16205 -25 12155 0
-16206 -16204 0
-16206 -16205 0
16206 16204 16205 0
-16207 -16203 0
-16207 16206 0
16207 16203 -16206 0
-16208 -16204 0
-16208 -16207 0
16208 16204 16207 0
-16210 26 0
-16210 -12156 0
16210 -26 12156 0
-16211 -16209 0
-16211 -16210 0
16211 16209 16210 0
-16212 -16208 0
-16212 16211 0
16212 16208 -16211 0
-16213 -16209 0
-16213 -16212 0
16213 16209 16212 0
-16215 27 0
-16215 -12157 0
16215 -27 12157 0
-16216 -16214 0
-16216 -16215 0
16216 16214 16215 0
-16217 -16213 0
-16217 16216 0
16217 16213 -16216 0
-16218 -16214 0
-16218 -16217 0
16218 16214 16217 0
-16220 28 0
-16220 -12158 0
16220 -28 12158 0
-16221 -16219 0
-16221 -16220 0
16221 16219 16220 0
-16222 -16218 0
-16222 16221 0
16222 16218 -16221 0
-16223 -16219 0
-16223 -16222 0
16223 16219 16222 0
-16225 29 0
-16225 -12159 0
16225 -29 12159 0
-16226 -16224 0
-16226 -16225 0
16226 16224 16225 0
-16227 -16223 0
-16227 16226 0
16227 16223 -16226 0
-16228 -16224 0
-16228 -16227 0
16228 16224 16227 0
-16230 30 0
-16230 -12160 0
16230 -30 12160 0
-16231 -16229 0
-16231 -16230 0
16231 16229 16230 0
-16232 -16228 0
-16232 16231 0
16232 16228 -16231 0
-16233 -16229 0
-16233 -16232 0
16233 16229 16232 0
-16235 31 0
-16235 -12161 0
16235 -31 12161 0
-16236 -16234 0
-16236 -16235 0
16236 16234 16235 0
-16237 -16233 0
-16237 16236 0
16237 16233 -16236 0
-16238 -16234 0
-16238 -16237 0
16238 16234 16237 0
-16239 -12162 0
-16239 -16238 0
16239 12162 16238 0
-16240 -12162 0
-16240 -16239 0
16240 12162 16239 0
-16241 -12163 0
-16241 -16240 0
16241 12163 16240 0
-16242 -12163 0
-16242 -16241 0
16242 12163 16241 0
-16243 -12164 0
-16243 -16242 0
16243 12164 16242 0
-16244 -12164 0
-16244 -16243 0
16244 12164 16243 0
-16245 -12165 0
-16245 -16244 0
16245 12165 16244 0
-16246 -12165 0
-16246 -16245 0
16246 12165 16245 0
-16247 -12166 0
-16247 -16246 0
16247 12166 16246 0
-16248 -12166 0
-16248 -16247 0
16248 12166 16247 0
-16249 -12167 0
-16249 -16248 0
16249 12167 16248 0
-16250 -12167 0
-16250 -16249 0
16250 12167 16249 0
-16251 -12168 0
-16251 -16250 0
16251 12168 16250 0
-16252 -12168 0
-16252 -16251 0
16252 12168 16251 0
-16253 -12169 0
-16253 -16252 0
16253 12169 16252 0
-16254 -12169 0
-16254 -16253 0
16254 12169 16253 0
-16255 -12170 0
-16255 -16254 0
16255 12170 16254 0
-16256 -12170 0
-16256 -16255 0
16256 12170 16255 0
-16257 -12171 0
-16257 -16256 0
16257 12171 16256 0
-16258 -12171 0
-16258 -16257 0
16258 12171 16257 0
-16259 -12172 0
-16259 -16258 0
16259 12172 16258 0
-16260 -12172 0
-16260 -16259 0
16260 12172 16259 0
-16261 -12173 0
-16261 -16260 0
16261 12173 16260 0
-16262 -12173 0
-16262 -16261 0
16262 12173 16261 0
-16263 -12174 0
-16263 -16262 0
16263 12174 16262 0
-16264 -12174 0
-16264 -16263 0
16264 12174 16263 0
-16265 -12175 0
-16265 -16264 0
16265 12175 16264 0
-16266 -12175 0
-16266 -16265 0
16266 12175 16265 0
-16267 -12176 0
-16267 -16266 0
16267 12176 16266 0
-16268 -12176 0
-16268 -16267 0
16268 12176 16267 0
-16269 -12177 0
-16269 -16268 0
16269 12177 16268 0
-16270 -12177 0
-16270 -16269 0
16270 12177 16269 0
-16271 -12178 0
-16271 -16270 0
16271 12178 16270 0
-16272 -12178 0
-16272 -16271 0
16272 12178 16271 0
-16273 -12179 0
-16273 -16272 0
16273 12179 16272 0
-16274 -12179 0
-16274 -16273 0
16274 12179 16273 0
-16275 -12180 0
-16275 -16274 0
16275 12180 16274 0
-16276 -12180 0
-16276 -16275 0
16276 12180 16275 0
-16277 -12181 0
-16277 -16276 0
16277 12181 16276 0
-16278 -12181 0
-16278 -16277 0
16278 12181 16277 0
-16279 -12182 0
-16279 -16278 0
16279 12182 16278 0
-16280 -12182 0
-16280 -16279 0
16280 12182 16279 0
-16281 -12183 0
-16281 -16280 0
16281 12183 16280 0
-16282 -12183 0
-16282 -16281 0
16282 12183 16281 0
-16283 -12184 0
-16283 -16282 0
16283 12184 16282 0
-16284 -12184 0
-16284 -16283 0
16284 12184 16283 0
-16285 -12185 0
-16285 -16284 0
16285 12185 16284 0
-16286 -12185 0
-16286 -16285 0
16286 12185 16285 0
-16287 -12186 0
-16287 -16286 0
16287 12186 16286 0
-16288 -12186 0
-16288 -16287 0
16288 12186 16287 0
-16289 -12187 0
-16289 -16288 0
16289 12187 16288 0
-16290 -12187 0
-16290 -16289 0
16290 12187 16289 0
-16291 -12188 0
-16291 -16290 0
16291 12188 16290 0
-16292 -12188 0
-16292 -16291 0
16292 12188 16291 0
-16293 -12189 0
-16293 -16292 0
16293 12189 16292 0
-16294 -12189 0
-16294 -16293 0
16294 12189 16293 0
-16295 -12190 0
-16295 -16294 0
16295 12190 16294 0
-16296 -12190 0
-16296 -16295 0
16296 12190 16295 0
-16297 -12191 0
-16297 -16296 0
16297 12191 16296 0
-16298 -12191 0
-16298 -16297 0
16298 12191 16297 0
-16299 -12192 0
-16299 -16298 0
16299 12192 16298 0
-16300 -12192 0
-16300 -16299 0
16300 12192 16299 0
-16301 -12193 0
-16301 -16300 0
16301 12193 16300 0
-16302 -12193 0
-16302 -16301 0
16302 12193 16301 0
-16303 -12194 0
-16303 -16302 0
16303 12194 16302 0
-16304 -12194 0
-16304 -16303 0
16304 12194 16303 0
-16305 -12195 0
-16305 -16304 0
16305 12195 16304 0
-16306 -12195 0
-16306 -16305 0
16306 12195 16305 0
-16307 16089 0
-16307 -16306 0
16307 -16089 16306 0
-16308 16014 0
-16308 -16307 0
16308 -16014 16307 0
-16309 13329 0
-16309 -16308 0
16309 -13329 16308 0
16309 0
