p cnf 17332 47516
31 -16286 0
-31 16286 0
30 -16285 0
-30 16285 0
29 -16284 0
-29 16284 0
28 -16283 0
-28 16283 0
27 -16282 0
-27 16282 0
26 -16281 0
-26 16281 0
25 -16280 0
-25 16280 0
24 -16279 0
-24 16279 0
23 -16278 0
-23 16278 0
22 -16277 0
-22 16277 0
21 -16276 0
-21 16276 0
20 -16275 0
-20 16275 0
19 -16274 0
-19 16274 0
18 -16273 0
-18 16273 0
17 -16272 0
-17 16272 0
16 -16271 0
-16 16271 0
15 -16270 0
-15 16270 0
14 -16269 0
-14 16269 0
13 -16268 0
-13 16268 0
12 -16267 0
-12 16267 0
11 -16266 0
-11 16266 0
10 -16265 0
-10 16265 0
9 -16264 0
-9 16264 0
8 -16263 0
-8 16263 0
7 -16262 0
-7 16262 0
6 -16261 0
-6 16261 0
5 -16260 0
-5 16260 0
4 -16259 0
-4 16259 0
2 -16257 0
-2 16257 0
3 -16258 0
-3 16258 0
-32 -2 0
-32 -3 0
32 2 3 0
-33 -4 0
-33 32 0
33 4 -32 0
-34 -5 0
-34 33 0
34 5 -33 0
-35 -6 0
-35 34 0
35 6 -34 0
-36 -7 0
-36 35 0
36 7 -35 0
-37 -8 0
-37 36 0
37 8 -36 0
-38 -9 0
-38 37 0
38 9 -37 0
-39 -10 0
-39 38 0
39 10 -38 0
-40 11 0
-40 39 0
40 -11 -39 0
-41 11 0
-41 -40 0
41 -11 40 0
-42 -12 0
-42 -41 0
42 12 41 0
-43 13 0
-43 42 0
43 -13 -42 0
-44 13 0
-44 -43 0
44 -13 43 0
-45 -14 0
-45 -44 0
45 14 44 0
-46 -15 0
-46 45 0
46 15 -45 0
-47 16 0
-47 46 0
47 -16 -46 0
-48 16 0
-48 -47 0
48 -16 47 0
-49 17 0
-49 -48 0
49 -17 48 0
-50 17 0
-50 -49 0
50 -17 49 0
-51 -18 0
-51 -50 0
51 18 50 0
-52 19 0
-52 51 0
52 -19 -51 0
-53 19 0
-53 -52 0
53 -19 52 0
-54 -20 0
-54 -53 0
54 20 53 0
-55 21 0
-55 54 0
55 -21 -54 0
-56 21 0
-56 -55 0
56 -21 55 0
-57 22 0
-57 -56 0
57 -22 56 0
-58 22 0
-58 -57 0
58 -22 57 0
-59 -23 0
-59 -58 0
59 23 58 0
-60 -24 0
-60 59 0
60 24 -59 0
-61 25 0
-61 60 0
61 -25 -60 0
-62 25 0
-62 -61 0
62 -25 61 0
-63 26 0
-63 -62 0
63 -26 62 0
-64 26 0
-64 -63 0
64 -26 63 0
-65 27 0
-65 -64 0
65 -27 64 0
-66 27 0
-66 -65 0
66 -27 65 0
-67 -28 0
-67 -66 0
67 28 66 0
-68 29 0
-68 67 0
68 -29 -67 0
-69 29 0
-69 -68 0
69 -29 68 0
-70 30 0
-70 -69 0
70 -30 69 0
-71 30 0
-71 -70 0
71 -30 70 0
-72 31 0
-72 -71 0
72 -31 71 0
-73 31 0
-73 -72 0
73 -31 72 0
-74 31 0
-74 -73 0
74 -31 73 0
138 -16350 0
-138 16350 0
137 -16349 0
-137 16349 0
136 -16348 0
-136 16348 0
135 -16347 0
-135 16347 0
134 -16346 0
-134 16346 0
133 -16345 0
-133 16345 0
132 -16344 0
-132 16344 0
131 -16343 0
-131 16343 0
130 -16342 0
-130 16342 0
129 -16341 0
-129 16341 0
128 -16340 0
-128 16340 0
127 -16339 0
-127 16339 0
126 -16338 0
-126 16338 0
125 -16337 0
-125 16337 0
124 -16336 0
-124 16336 0
123 -16335 0
-123 16335 0
122 -16334 0
-122 16334 0
121 -16333 0
-121 16333 0
120 -16332 0
-120 16332 0
119 -16331 0
-119 16331 0
118 -16330 0
-118 16330 0
117 -16329 0
-117 16329 0
116 -16328 0
-116 16328 0
115 -16327 0
-115 16327 0
114 -16326 0
-114 16326 0
113 -16325 0
-113 16325 0
112 -16324 0
-112 16324 0
111 -16323 0
-111 16323 0
110 -16322 0
-110 16322 0
109 -16321 0
-109 16321 0
108 -16320 0
-108 16320 0
107 -16319 0
-107 16319 0
106 -16318 0
-106 16318 0
-330 30 0
-330 31 0
330 -30 -31 0
-323 29 0
-323 30 0
323 -29 -30 0
-316 28 0
-316 29 0
316 -28 -29 0
-309 27 0
-309 28 0
309 -27 -28 0
-302 26 0
-302 27 0
302 -26 -27 0
-295 25 0
-295 26 0
295 -25 -26 0
-288 24 0
-288 25 0
288 -24 -25 0
-281 23 0
-281 24 0
281 -23 -24 0
-274 22 0
-274 23 0
274 -22 -23 0
-267 21 0
-267 22 0
267 -21 -22 0
-260 20 0
-260 21 0
260 -20 -21 0
-253 19 0
-253 20 0
253 -19 -20 0
-246 18 0
-246 19 0
246 -18 -19 0
-239 17 0
-239 18 0
239 -17 -18 0
-232 16 0
-232 17 0
232 -16 -17 0
-225 15 0
-225 16 0
225 -15 -16 0
-218 14 0
-218 15 0
218 -14 -15 0
-211 13 0
-211 14 0
211 -13 -14 0
-204 12 0
-204 13 0
204 -12 -13 0
-197 11 0
-197 12 0
197 -11 -12 0
-190 10 0
-190 11 0
190 -10 -11 0
-183 9 0
-183 10 0
183 -9 -10 0
-176 8 0
-176 9 0
176 -8 -9 0
-169 7 0
-169 8 0
169 -7 -8 0
-162 6 0
-162 7 0
162 -6 -7 0
-155 5 0
-155 6 0
155 -5 -6 0
-148 4 0
-148 5 0
148 -4 -5 0
-141 3 0
-141 4 0
141 -3 -4 0
-139 2 0
-139 3 0
139 -2 -3 0
-142 -3 0
-142 -4 0
142 3 4 0
-143 -141 0
-143 -142 0
143 141 142 0
-144 139 0
-144 143 0
144 -139 -143 0
-147 -141 0
-147 -144 0
147 141 144 0
-149 -4 0
-149 -5 0
149 4 5 0
-150 -148 0
-150 -149 0
150 148 149 0
-151 -147 0
-151 150 0
151 147 -150 0
-154 -148 0
-154 -151 0
154 148 151 0
-156 -5 0
-156 -6 0
156 5 6 0
-157 -155 0
-157 -156 0
157 155 156 0
-158 -154 0
-158 157 0
158 154 -157 0
-161 -155 0
-161 -158 0
161 155 158 0
-163 -6 0
-163 -7 0
163 6 7 0
-164 -162 0
-164 -163 0
164 162 163 0
-165 -161 0
-165 164 0
165 161 -164 0
-168 -162 0
-168 -165 0
168 162 165 0
-170 -7 0
-170 -8 0
170 7 8 0
-171 -169 0
-171 -170 0
171 169 170 0
-172 -168 0
-172 171 0
172 168 -171 0
-175 -169 0
-175 -172 0
175 169 172 0
-177 -8 0
-177 -9 0
177 8 9 0
-178 -176 0
-178 -177 0
178 176 177 0
-179 -175 0
-179 178 0
179 175 -178 0
-182 -176 0
-182 -179 0
182 176 179 0
-184 -9 0
-184 -10 0
184 9 10 0
-185 -183 0
-185 -184 0
185 183 184 0
-186 -182 0
-186 185 0
186 182 -185 0
-189 -183 0
-189 -186 0
189 183 186 0
-191 -10 0
-191 -11 0
191 10 11 0
-192 -190 0
-192 -191 0
192 190 191 0
-193 -189 0
-193 192 0
193 189 -192 0
-196 -190 0
-196 -193 0
196 190 193 0
-198 -11 0
-198 -12 0
198 11 12 0
-199 -197 0
-199 -198 0
199 197 198 0
-200 -196 0
-200 199 0
200 196 -199 0
-203 -197 0
-203 -200 0
203 197 200 0
-205 -12 0
-205 -13 0
205 12 13 0
-206 -204 0
-206 -205 0
206 204 205 0
-207 -203 0
-207 206 0
207 203 -206 0
-210 -204 0
-210 -207 0
210 204 207 0
-212 -13 0
-212 -14 0
212 13 14 0
-213 -211 0
-213 -212 0
213 211 212 0
-214 -210 0
-214 213 0
214 210 -213 0
-217 -211 0
-217 -214 0
217 211 214 0
-219 -14 0
-219 -15 0
219 14 15 0
-220 -218 0
-220 -219 0
220 218 219 0
-221 -217 0
-221 220 0
221 217 -220 0
-224 -218 0
-224 -221 0
224 218 221 0
-226 -15 0
-226 -16 0
226 15 16 0
-227 -225 0
-227 -226 0
227 225 226 0
-228 -224 0
-228 227 0
228 224 -227 0
-231 -225 0
-231 -228 0
231 225 228 0
-233 -16 0
-233 -17 0
233 16 17 0
-234 -232 0
-234 -233 0
234 232 233 0
-235 -231 0
-235 234 0
235 231 -234 0
-238 -232 0
-238 -235 0
238 232 235 0
-240 -17 0
-240 -18 0
240 17 18 0
-241 -239 0
-241 -240 0
241 239 240 0
-242 -238 0
-242 241 0
242 238 -241 0
-245 -239 0
-245 -242 0
245 239 242 0
-247 -18 0
-247 -19 0
247 18 19 0
-248 -246 0
-248 -247 0
248 246 247 0
-249 -245 0
-249 248 0
249 245 -248 0
-252 -246 0
-252 -249 0
252 246 249 0
-254 -19 0
-254 -20 0
254 19 20 0
-255 -253 0
-255 -254 0
255 253 254 0
-256 -252 0
-256 255 0
256 252 -255 0
-259 -253 0
-259 -256 0
259 253 256 0
-261 -20 0
-261 -21 0
261 20 21 0
-262 -260 0
-262 -261 0
262 260 261 0
-263 -259 0
-263 262 0
263 259 -262 0
-266 -260 0
-266 -263 0
266 260 263 0
-268 -21 0
-268 -22 0
268 21 22 0
-269 -267 0
-269 -268 0
269 267 268 0
-270 -266 0
-270 269 0
270 266 -269 0
-273 -267 0
-273 -270 0
273 267 270 0
-275 -22 0
-275 -23 0
275 22 23 0
-276 -274 0
-276 -275 0
276 274 275 0
-277 -273 0
-277 276 0
277 273 -276 0
-280 -274 0
-280 -277 0
280 274 277 0
-282 -23 0
-282 -24 0
282 23 24 0
-283 -281 0
-283 -282 0
283 281 282 0
-284 -280 0
-284 283 0
284 280 -283 0
-287 -281 0
-287 -284 0
287 281 284 0
-289 -24 0
-289 -25 0
289 24 25 0
-290 -288 0
-290 -289 0
290 288 289 0
-291 -287 0
-291 290 0
291 287 -290 0
-294 -288 0
-294 -291 0
294 288 291 0
-296 -25 0
-296 -26 0
296 25 26 0
-297 -295 0
-297 -296 0
297 295 296 0
-298 -294 0
-298 297 0
298 294 -297 0
-301 -295 0
-301 -298 0
301 295 298 0
-303 -26 0
-303 -27 0
303 26 27 0
-304 -302 0
-304 -303 0
304 302 303 0
-305 -301 0
-305 304 0
305 301 -304 0
-308 -302 0
-308 -305 0
308 302 305 0
-310 -27 0
-310 -28 0
310 27 28 0
-311 -309 0
-311 -310 0
311 309 310 0
-312 -308 0
-312 311 0
312 308 -311 0
-315 -309 0
-315 -312 0
315 309 312 0
-317 -28 0
-317 -29 0
317 28 29 0
-318 -316 0
-318 -317 0
318 316 317 0
-319 -315 0
-319 318 0
319 315 -318 0
-322 -316 0
-322 -319 0
322 316 319 0
-324 -29 0
-324 -30 0
324 29 30 0
-325 -323 0
-325 -324 0
325 323 324 0
-326 -322 0
-326 325 0
326 322 -325 0
-329 -323 0
-329 -326 0
329 323 326 0
-331 -30 0
-331 -31 0
331 30 31 0
-332 -330 0
-332 -331 0
332 330 331 0
-333 -329 0
-333 332 0
333 329 -332 0
-336 -330 0
-336 -333 0
336 330 333 0
-337 31 0
-337 -336 0
337 -31 336 0
-338 -31 0
-338 336 0
338 31 -336 0
-339 -337 0
-339 -338 0
339 337 338 0
-334 329 0
-334 -332 0
334 -329 332 0
-335 -333 0
-335 -334 0
335 333 334 0
-327 322 0
-327 -325 0
327 -322 325 0
-328 -326 0
-328 -327 0
328 326 327 0
-320 315 0
-320 -318 0
320 -315 318 0
-321 -319 0
-321 -320 0
321 319 320 0
-313 308 0
-313 -311 0
313 -308 311 0
-314 -312 0
-314 -313 0
314 312 313 0
-306 301 0
-306 -304 0
306 -301 304 0
-307 -305 0
-307 -306 0
307 305 306 0
-299 294 0
-299 -297 0
299 -294 297 0
-300 -298 0
-300 -299 0
300 298 299 0
-292 287 0
-292 -290 0
292 -287 290 0
-293 -291 0
-293 -292 0
293 291 292 0
-285 280 0
-285 -283 0
285 -280 283 0
-286 -284 0
-286 -285 0
286 284 285 0
-278 273 0
-278 -276 0
278 -273 276 0
-279 -277 0
-279 -278 0
279 277 278 0
-271 266 0
-271 -269 0
271 -266 269 0
-272 -270 0
-272 -271 0
272 270 271 0
-264 259 0
-264 -262 0
264 -259 262 0
-265 -263 0
-265 -264 0
265 263 264 0
-257 252 0
-257 -255 0
257 -252 255 0
-258 -256 0
-258 -257 0
258 256 257 0
-250 245 0
-250 -248 0
250 -245 248 0
-251 -249 0
-251 -250 0
251 249 250 0
-243 238 0
-243 -241 0
243 -238 241 0
-244 -242 0
-244 -243 0
244 242 243 0
-236 231 0
-236 -234 0
236 -231 234 0
-237 -235 0
-237 -236 0
237 235 236 0
-229 224 0
-229 -227 0
229 -224 227 0
-230 -228 0
-230 -229 0
230 228 229 0
-222 217 0
-222 -220 0
222 -217 220 0
-223 -221 0
-223 -222 0
223 221 222 0
-215 210 0
-215 -213 0
215 -210 213 0
-216 -214 0
-216 -215 0
216 214 215 0
-208 203 0
-208 -206 0
208 -203 206 0
-209 -207 0
-209 -208 0
209 207 208 0
-201 196 0
-201 -199 0
201 -196 199 0
-202 -200 0
-202 -201 0
202 200 201 0
-194 189 0
-194 -192 0
194 -189 192 0
-195 -193 0
-195 -194 0
195 193 194 0
-187 182 0
-187 -185 0
187 -182 185 0
-188 -186 0
-188 -187 0
188 186 187 0
-180 175 0
-180 -178 0
180 -175 178 0
-181 -179 0
-181 -180 0
181 179 180 0
-173 168 0
-173 -171 0
173 -168 171 0
-174 -172 0
-174 -173 0
174 172 173 0
-166 161 0
-166 -164 0
166 -161 164 0
-167 -165 0
-167 -166 0
167 165 166 0
-159 154 0
-159 -157 0
159 -154 157 0
-160 -158 0
-160 -159 0
160 158 159 0
-152 147 0
-152 -150 0
152 -147 150 0
-153 -151 0
-153 -152 0
153 151 152 0
-145 -139 0
-145 -143 0
145 139 143 0
-146 -144 0
-146 -145 0
146 144 145 0
-140 -32 0
-140 -139 0
140 32 139 0
-340 2 0
-340 140 0
340 -2 -140 0
-343 146 0
-343 340 0
343 -146 -340 0
-346 153 0
-346 343 0
346 -153 -343 0
-349 160 0
-349 346 0
349 -160 -346 0
-352 167 0
-352 349 0
352 -167 -349 0
-355 174 0
-355 352 0
355 -174 -352 0
-358 181 0
-358 355 0
358 -181 -355 0
-361 188 0
-361 358 0
361 -188 -358 0
-364 195 0
-364 361 0
364 -195 -361 0
-367 202 0
-367 364 0
367 -202 -364 0
-370 209 0
-370 367 0
370 -209 -367 0
-373 216 0
-373 370 0
373 -216 -370 0
-376 223 0
-376 373 0
376 -223 -373 0
-379 230 0
-379 376 0
379 -230 -376 0
-382 237 0
-382 379 0
382 -237 -379 0
-385 244 0
-385 382 0
385 -244 -382 0
-388 251 0
-388 385 0
388 -251 -385 0
-391 258 0
-391 388 0
391 -258 -388 0
-394 265 0
-394 391 0
394 -265 -391 0
-397 272 0
-397 394 0
397 -272 -394 0
-400 279 0
-400 397 0
400 -279 -397 0
-403 286 0
-403 400 0
403 -286 -400 0
-406 293 0
-406 403 0
406 -293 -403 0
-409 300 0
-409 406 0
409 -300 -406 0
-412 307 0
-412 409 0
412 -307 -409 0
-415 314 0
-415 412 0
415 -314 -412 0
-418 321 0
-418 415 0
418 -321 -415 0
-421 328 0
-421 418 0
421 -328 -418 0
-424 335 0
-424 421 0
424 -335 -421 0
-427 339 0
-427 424 0
427 -339 -424 0
-430 337 0
-430 427 0
430 -337 -427 0
-526 106 0
-526 -430 0
526 -106 430 0
-527 -106 0
-527 430 0
527 106 -430 0
-528 -526 0
-528 -527 0
528 526 527 0
105 -16317 0
-105 16317 0
-431 -337 0
-431 -427 0
431 337 427 0
-432 -430 0
-432 -431 0
432 430 431 0
-523 105 0
-523 -432 0
523 -105 432 0
-524 -105 0
-524 432 0
524 105 -432 0
-525 -523 0
-525 -524 0
525 523 524 0
104 -16316 0
-104 16316 0
-428 -339 0
-428 -424 0
428 339 424 0
-429 -427 0
-429 -428 0
429 427 428 0
-520 104 0
-520 -429 0
520 -104 429 0
-521 -104 0
-521 429 0
521 104 -429 0
-522 -520 0
-522 -521 0
522 520 521 0
103 -16315 0
-103 16315 0
-425 -335 0
-425 -421 0
425 335 421 0
-426 -424 0
-426 -425 0
426 424 425 0
-517 103 0
-517 -426 0
517 -103 426 0
-518 -103 0
-518 426 0
518 103 -426 0
-519 -517 0
-519 -518 0
519 517 518 0
102 -16314 0
-102 16314 0
-422 -328 0
-422 -418 0
422 328 418 0
-423 -421 0
-423 -422 0
423 421 422 0
-514 102 0
-514 -423 0
514 -102 423 0
-515 -102 0
-515 423 0
515 102 -423 0
-516 -514 0
-516 -515 0
516 514 515 0
101 -16313 0
-101 16313 0
-419 -321 0
-419 -415 0
419 321 415 0
-420 -418 0
-420 -419 0
420 418 419 0
-511 101 0
-511 -420 0
511 -101 420 0
-512 -101 0
-512 420 0
512 101 -420 0
-513 -511 0
-513 -512 0
513 511 512 0
100 -16312 0
-100 16312 0
-416 -314 0
-416 -412 0
416 314 412 0
-417 -415 0
-417 -416 0
417 415 416 0
-508 100 0
-508 -417 0
508 -100 417 0
-509 -100 0
-509 417 0
509 100 -417 0
-510 -508 0
-510 -509 0
510 508 509 0
99 -16311 0
-99 16311 0
-413 -307 0
-413 -409 0
413 307 409 0
-414 -412 0
-414 -413 0
414 412 413 0
-505 99 0
-505 -414 0
505 -99 414 0
-506 -99 0
-506 414 0
506 99 -414 0
-507 -505 0
-507 -506 0
507 505 506 0
98 -16310 0
-98 16310 0
-410 -300 0
-410 -406 0
410 300 406 0
-411 -409 0
-411 -410 0
411 409 410 0
-502 98 0
-502 -411 0
502 -98 411 0
-503 -98 0
-503 411 0
503 98 -411 0
-504 -502 0
-504 -503 0
504 502 503 0
97 -16309 0
-97 16309 0
-407 -293 0
-407 -403 0
407 293 403 0
-408 -406 0
-408 -407 0
408 406 407 0
-499 97 0
-499 -408 0
499 -97 408 0
-500 -97 0
-500 408 0
500 97 -408 0
-501 -499 0
-501 -500 0
501 499 500 0
96 -16308 0
-96 16308 0
-404 -286 0
-404 -400 0
404 286 400 0
-405 -403 0
-405 -404 0
405 403 404 0
-496 96 0
-496 -405 0
496 -96 405 0
-497 -96 0
-497 405 0
497 96 -405 0
-498 -496 0
-498 -497 0
498 496 497 0
95 -16307 0
-95 16307 0
-401 -279 0
-401 -397 0
401 279 397 0
-402 -400 0
-402 -401 0
402 400 401 0
-493 95 0
-493 -402 0
493 -95 402 0
-494 -95 0
-494 402 0
494 95 -402 0
-495 -493 0
-495 -494 0
495 493 494 0
94 -16306 0
-94 16306 0
-398 -272 0
-398 -394 0
398 272 394 0
-399 -397 0
-399 -398 0
399 397 398 0
-490 94 0
-490 -399 0
490 -94 399 0
-491 -94 0
-491 399 0
491 94 -399 0
-492 -490 0
-492 -491 0
492 490 491 0
93 -16305 0
-93 16305 0
-395 -265 0
-395 -391 0
395 265 391 0
-396 -394 0
-396 -395 0
396 394 395 0
-487 93 0
-487 -396 0
487 -93 396 0
-488 -93 0
-488 396 0
488 93 -396 0
-489 -487 0
-489 -488 0
489 487 488 0
92 -16304 0
-92 16304 0
-392 -258 0
-392 -388 0
392 258 388 0
-393 -391 0
-393 -392 0
393 391 392 0
-484 92 0
-484 -393 0
484 -92 393 0
-485 -92 0
-485 393 0
485 92 -393 0
-486 -484 0
-486 -485 0
486 484 485 0
91 -16303 0
-91 16303 0
-389 -251 0
-389 -385 0
389 251 385 0
-390 -388 0
-390 -389 0
390 388 389 0
-481 91 0
-481 -390 0
481 -91 390 0
-482 -91 0
-482 390 0
482 91 -390 0
-483 -481 0
-483 -482 0
483 481 482 0
90 -16302 0
-90 16302 0
-386 -244 0
-386 -382 0
386 244 382 0
-387 -385 0
-387 -386 0
387 385 386 0
-478 90 0
-478 -387 0
478 -90 387 0
-479 -90 0
-479 387 0
479 90 -387 0
-480 -478 0
-480 -479 0
480 478 479 0
89 -16301 0
-89 16301 0
-383 -237 0
-383 -379 0
383 237 379 0
-384 -382 0
-384 -383 0
384 382 383 0
-475 89 0
-475 -384 0
475 -89 384 0
-476 -89 0
-476 384 0
476 89 -384 0
-477 -475 0
-477 -476 0
477 475 476 0
88 -16300 0
-88 16300 0
-380 -230 0
-380 -376 0
380 230 376 0
-381 -379 0
-381 -380 0
381 379 380 0
-472 88 0
-472 -381 0
472 -88 381 0
-473 -88 0
-473 381 0
473 88 -381 0
-474 -472 0
-474 -473 0
474 472 473 0
87 -16299 0
-87 16299 0
-377 -223 0
-377 -373 0
377 223 373 0
-378 -376 0
-378 -377 0
378 376 377 0
-469 87 0
-469 -378 0
469 -87 378 0
-470 -87 0
-470 378 0
470 87 -378 0
-471 -469 0
-471 -470 0
471 469 470 0
86 -16298 0
-86 16298 0
-374 -216 0
-374 -370 0
374 216 370 0
-375 -373 0
-375 -374 0
375 373 374 0
-466 86 0
-466 -375 0
466 -86 375 0
-467 -86 0
-467 375 0
467 86 -375 0
-468 -466 0
-468 -467 0
468 466 467 0
85 -16297 0
-85 16297 0
-371 -209 0
-371 -367 0
371 209 367 0
-372 -370 0
-372 -371 0
372 370 371 0
-463 85 0
-463 -372 0
463 -85 372 0
-464 -85 0
-464 372 0
464 85 -372 0
-465 -463 0
-465 -464 0
465 463 464 0
84 -16296 0
-84 16296 0
-368 -202 0
-368 -364 0
368 202 364 0
-369 -367 0
-369 -368 0
369 367 368 0
-460 84 0
-460 -369 0
460 -84 369 0
-461 -84 0
-461 369 0
461 84 -369 0
-462 -460 0
-462 -461 0
462 460 461 0
83 -16295 0
-83 16295 0
-365 -195 0
-365 -361 0
365 195 361 0
-366 -364 0
-366 -365 0
366 364 365 0
-457 83 0
-457 -366 0
457 -83 366 0
-458 -83 0
-458 366 0
458 83 -366 0
-459 -457 0
-459 -458 0
459 457 458 0
82 -16294 0
-82 16294 0
-362 -188 0
-362 -358 0
362 188 358 0
-363 -361 0
-363 -362 0
363 361 362 0
-454 82 0
-454 -363 0
454 -82 363 0
-455 -82 0
-455 363 0
455 82 -363 0
-456 -454 0
-456 -455 0
456 454 455 0
81 -16293 0
-81 16293 0
-359 -181 0
-359 -355 0
359 181 355 0
-360 -358 0
-360 -359 0
360 358 359 0
-451 81 0
-451 -360 0
451 -81 360 0
-452 -81 0
-452 360 0
452 81 -360 0
-453 -451 0
-453 -452 0
453 451 452 0
80 -16292 0
-80 16292 0
-356 -174 0
-356 -352 0
356 174 352 0
-357 -355 0
-357 -356 0
357 355 356 0
-448 80 0
-448 -357 0
448 -80 357 0
-449 -80 0
-449 357 0
449 80 -357 0
-450 -448 0
-450 -449 0
450 448 449 0
79 -16291 0
-79 16291 0
-353 -167 0
-353 -349 0
353 167 349 0
-354 -352 0
-354 -353 0
354 352 353 0
-445 79 0
-445 -354 0
445 -79 354 0
-446 -79 0
-446 354 0
446 79 -354 0
-447 -445 0
-447 -446 0
447 445 446 0
78 -16290 0
-78 16290 0
-350 -160 0
-350 -346 0
350 160 346 0
-351 -349 0
-351 -350 0
351 349 350 0
-442 78 0
-442 -351 0
442 -78 351 0
-443 -78 0
-443 351 0
443 78 -351 0
-444 -442 0
-444 -443 0
444 442 443 0
77 -16289 0
-77 16289 0
-347 -153 0
-347 -343 0
347 153 343 0
-348 -346 0
-348 -347 0
348 346 347 0
-439 77 0
-439 -348 0
439 -77 348 0
-440 -77 0
-440 348 0
440 77 -348 0
-441 -439 0
-441 -440 0
441 439 440 0
75 -16287 0
-75 16287 0
-341 -2 0
-341 -140 0
341 2 140 0
-342 -340 0
-342 -341 0
342 340 341 0
-433 75 0
-433 -342 0
433 -75 342 0
-434 -75 0
-434 342 0
434 75 -342 0
-435 -433 0
-435 -434 0
435 433 434 0
76 -16288 0
-76 16288 0
-344 -146 0
-344 -340 0
344 146 340 0
-345 -343 0
-345 -344 0
345 343 344 0
-436 76 0
-436 -345 0
436 -76 345 0
-437 -76 0
-437 345 0
437 76 -345 0
-438 -436 0
-438 -437 0
438 436 437 0
-529 435 0
-529 438 0
529 -435 -438 0
-530 441 0
-530 529 0
530 -441 -529 0
-531 444 0
-531 530 0
531 -444 -530 0
-532 447 0
-532 531 0
532 -447 -531 0
-533 450 0
-533 532 0
533 -450 -532 0
-534 453 0
-534 533 0
534 -453 -533 0
-535 456 0
-535 534 0
535 -456 -534 0
-536 459 0
-536 535 0
536 -459 -535 0
-537 462 0
-537 536 0
537 -462 -536 0
-538 465 0
-538 537 0
538 -465 -537 0
-539 468 0
-539 538 0
539 -468 -538 0
-540 471 0
-540 539 0
540 -471 -539 0
-541 474 0
-541 540 0
541 -474 -540 0
-542 477 0
-542 541 0
542 -477 -541 0
-543 480 0
-543 542 0
543 -480 -542 0
-544 483 0
-544 543 0
544 -483 -543 0
-545 486 0
-545 544 0
545 -486 -544 0
-546 489 0
-546 545 0
546 -489 -545 0
-547 492 0
-547 546 0
547 -492 -546 0
-548 495 0
-548 547 0
548 -495 -547 0
-549 498 0
-549 548 0
549 -498 -548 0
-550 501 0
-550 549 0
550 -501 -549 0
-551 504 0
-551 550 0
551 -504 -550 0
-552 507 0
-552 551 0
552 -507 -551 0
-553 510 0
-553 552 0
553 -510 -552 0
-554 513 0
-554 553 0
554 -513 -553 0
-555 516 0
-555 554 0
555 -516 -554 0
-556 519 0
-556 555 0
556 -519 -555 0
-557 522 0
-557 556 0
557 -522 -556 0
-558 525 0
-558 557 0
558 -525 -557 0
-559 528 0
-559 558 0
559 -528 -558 0
-560 -107 0
-560 559 0
560 107 -559 0
-561 -108 0
-561 560 0
561 108 -560 0
-562 -109 0
-562 561 0
562 109 -561 0
-563 -110 0
-563 562 0
563 110 -562 0
-564 -111 0
-564 563 0
564 111 -563 0
-565 -112 0
-565 564 0
565 112 -564 0
-566 -113 0
-566 565 0
566 113 -565 0
-567 -114 0
-567 566 0
567 114 -566 0
-568 -115 0
-568 567 0
568 115 -567 0
-569 -116 0
-569 568 0
569 116 -568 0
-570 -117 0
-570 569 0
570 117 -569 0
-571 -118 0
-571 570 0
571 118 -570 0
-572 -119 0
-572 571 0
572 119 -571 0
-573 -120 0
-573 572 0
573 120 -572 0
-574 -121 0
-574 573 0
574 121 -573 0
-575 -122 0
-575 574 0
575 122 -574 0
-576 -123 0
-576 575 0
576 123 -575 0
-577 -124 0
-577 576 0
577 124 -576 0
-578 -125 0
-578 577 0
578 125 -577 0
-579 -126 0
-579 578 0
579 126 -578 0
-580 -127 0
-580 579 0
580 127 -579 0
-581 -128 0
-581 580 0
581 128 -580 0
-582 -129 0
-582 581 0
582 129 -581 0
-583 -130 0
-583 582 0
583 130 -582 0
-584 -131 0
-584 583 0
584 131 -583 0
-585 -132 0
-585 584 0
585 132 -584 0
-586 -133 0
-586 585 0
586 133 -585 0
-587 -134 0
-587 586 0
587 134 -586 0
-588 -135 0
-588 587 0
588 135 -587 0
-589 -136 0
-589 588 0
589 136 -588 0
-590 -137 0
-590 589 0
590 137 -589 0
-591 -138 0
-591 590 0
591 138 -590 0
-592 2 0
-592 -591 0
592 -2 591 0
-593 74 0
-593 -592 0
593 -74 592 0
-678 -31 0
-678 103 0
678 31 -103 0
-679 31 0
-679 -103 0
679 -31 103 0
-680 -678 0
-680 -679 0
680 678 679 0
-675 -30 0
-675 102 0
675 30 -102 0
-676 30 0
-676 -102 0
676 -30 102 0
-677 -675 0
-677 -676 0
677 675 676 0
-672 -29 0
-672 101 0
672 29 -101 0
-673 29 0
-673 -101 0
673 -29 101 0
-674 -672 0
-674 -673 0
674 672 673 0
-669 -28 0
-669 100 0
669 28 -100 0
-670 28 0
-670 -100 0
670 -28 100 0
-671 -669 0
-671 -670 0
671 669 670 0
-666 -27 0
-666 99 0
666 27 -99 0
-667 27 0
-667 -99 0
667 -27 99 0
-668 -666 0
-668 -667 0
668 666 667 0
-663 -26 0
-663 98 0
663 26 -98 0
-664 26 0
-664 -98 0
664 -26 98 0
-665 -663 0
-665 -664 0
665 663 664 0
-660 -25 0
-660 97 0
660 25 -97 0
-661 25 0
-661 -97 0
661 -25 97 0
-662 -660 0
-662 -661 0
662 660 661 0
-657 -24 0
-657 96 0
657 24 -96 0
-658 24 0
-658 -96 0
658 -24 96 0
-659 -657 0
-659 -658 0
659 657 658 0
-654 -23 0
-654 95 0
654 23 -95 0
-655 23 0
-655 -95 0
655 -23 95 0
-656 -654 0
-656 -655 0
656 654 655 0
-651 -22 0
-651 94 0
651 22 -94 0
-652 22 0
-652 -94 0
652 -22 94 0
-653 -651 0
-653 -652 0
653 651 652 0
-648 -21 0
-648 93 0
648 21 -93 0
-649 21 0
-649 -93 0
649 -21 93 0
-650 -648 0
-650 -649 0
650 648 649 0
-645 -20 0
-645 92 0
645 20 -92 0
-646 20 0
-646 -92 0
646 -20 92 0
-647 -645 0
-647 -646 0
647 645 646 0
-642 -19 0
-642 91 0
642 19 -91 0
-643 19 0
-643 -91 0
643 -19 91 0
-644 -642 0
-644 -643 0
644 642 643 0
-639 -18 0
-639 90 0
639 18 -90 0
-640 18 0
-640 -90 0
640 -18 90 0
-641 -639 0
-641 -640 0
641 639 640 0
-636 -17 0
-636 89 0
636 17 -89 0
-637 17 0
-637 -89 0
637 -17 89 0
-638 -636 0
-638 -637 0
638 636 637 0
-633 -16 0
-633 88 0
633 16 -88 0
-634 16 0
-634 -88 0
634 -16 88 0
-635 -633 0
-635 -634 0
635 633 634 0
-630 -15 0
-630 87 0
630 15 -87 0
-631 15 0
-631 -87 0
631 -15 87 0
-632 -630 0
-632 -631 0
632 630 631 0
-627 -14 0
-627 86 0
627 14 -86 0
-628 14 0
-628 -86 0
628 -14 86 0
-629 -627 0
-629 -628 0
629 627 628 0
-624 -13 0
-624 85 0
624 13 -85 0
-625 13 0
-625 -85 0
625 -13 85 0
-626 -624 0
-626 -625 0
626 624 625 0
-621 -12 0
-621 84 0
621 12 -84 0
-622 12 0
-622 -84 0
622 -12 84 0
-623 -621 0
-623 -622 0
623 621 622 0
-618 -11 0
-618 83 0
618 11 -83 0
-619 11 0
-619 -83 0
619 -11 83 0
-620 -618 0
-620 -619 0
620 618 619 0
-615 -10 0
-615 82 0
615 10 -82 0
-616 10 0
-616 -82 0
616 -10 82 0
-617 -615 0
-617 -616 0
617 615 616 0
-612 -9 0
-612 81 0
612 9 -81 0
-613 9 0
-613 -81 0
613 -9 81 0
-614 -612 0
-614 -613 0
614 612 613 0
-609 -8 0
-609 80 0
609 8 -80 0
-610 8 0
-610 -80 0
610 -8 80 0
-611 -609 0
-611 -610 0
611 609 610 0
-606 -7 0
-606 79 0
606 7 -79 0
-607 7 0
-607 -79 0
607 -7 79 0
-608 -606 0
-608 -607 0
608 606 607 0
-603 -6 0
-603 78 0
603 6 -78 0
-604 6 0
-604 -78 0
604 -6 78 0
-605 -603 0
-605 -604 0
605 603 604 0
-600 -5 0
-600 77 0
600 5 -77 0
-601 5 0
-601 -77 0
601 -5 77 0
-602 -600 0
-602 -601 0
602 600 601 0
-594 -3 0
-594 75 0
594 3 -75 0
-595 3 0
-595 -75 0
595 -3 75 0
-596 -594 0
-596 -595 0
596 594 595 0
-597 -4 0
-597 76 0
597 4 -76 0
-598 4 0
-598 -76 0
598 -4 76 0
-599 -597 0
-599 -598 0
599 597 598 0
-681 596 0
-681 599 0
681 -596 -599 0
-682 602 0
-682 681 0
682 -602 -681 0
-683 605 0
-683 682 0
683 -605 -682 0
-684 608 0
-684 683 0
684 -608 -683 0
-685 611 0
-685 684 0
685 -611 -684 0
-686 614 0
-686 685 0
686 -614 -685 0
-687 617 0
-687 686 0
687 -617 -686 0
-688 620 0
-688 687 0
688 -620 -687 0
-689 623 0
-689 688 0
689 -623 -688 0
-690 626 0
-690 689 0
690 -626 -689 0
-691 629 0
-691 690 0
691 -629 -690 0
-692 632 0
-692 691 0
692 -632 -691 0
-693 635 0
-693 692 0
693 -635 -692 0
-694 638 0
-694 693 0
694 -638 -693 0
-695 641 0
-695 694 0
695 -641 -694 0
-696 644 0
-696 695 0
696 -644 -695 0
-697 647 0
-697 696 0
697 -647 -696 0
-698 650 0
-698 697 0
698 -650 -697 0
-699 653 0
-699 698 0
699 -653 -698 0
-700 656 0
-700 699 0
700 -656 -699 0
-701 659 0
-701 700 0
701 -659 -700 0
-702 662 0
-702 701 0
702 -662 -701 0
-703 665 0
-703 702 0
703 -665 -702 0
-704 668 0
-704 703 0
704 -668 -703 0
-705 671 0
-705 704 0
705 -671 -704 0
-706 674 0
-706 705 0
706 -674 -705 0
-707 677 0
-707 706 0
707 -677 -706 0
-708 680 0
-708 707 0
708 -680 -707 0
-709 -104 0
-709 708 0
709 104 -708 0
-710 -105 0
-710 709 0
710 105 -709 0
-711 -106 0
-711 710 0
711 106 -710 0
-712 -107 0
-712 711 0
712 107 -711 0
-713 -108 0
-713 712 0
713 108 -712 0
-714 -109 0
-714 713 0
714 109 -713 0
-715 -110 0
-715 714 0
715 110 -714 0
-716 -111 0
-716 715 0
716 111 -715 0
-717 -112 0
-717 716 0
717 112 -716 0
-718 -113 0
-718 717 0
718 113 -717 0
-719 -114 0
-719 718 0
719 114 -718 0
-720 -115 0
-720 719 0
720 115 -719 0
-721 -116 0
-721 720 0
721 116 -720 0
-722 -117 0
-722 721 0
722 117 -721 0
-723 -118 0
-723 722 0
723 118 -722 0
-724 -119 0
-724 723 0
724 119 -723 0
-725 -120 0
-725 724 0
725 120 -724 0
-726 -121 0
-726 725 0
726 121 -725 0
-727 -122 0
-727 726 0
727 122 -726 0
-728 -123 0
-728 727 0
728 123 -727 0
-729 -124 0
-729 728 0
729 124 -728 0
-730 -125 0
-730 729 0
730 125 -729 0
-731 -126 0
-731 730 0
731 126 -730 0
-732 -127 0
-732 731 0
732 127 -731 0
-733 -128 0
-733 732 0
733 128 -732 0
-734 -129 0
-734 733 0
734 129 -733 0
-735 -130 0
-735 734 0
735 130 -734 0
-736 -131 0
-736 735 0
736 131 -735 0
-737 -132 0
-737 736 0
737 132 -736 0
-738 -133 0
-738 737 0
738 133 -737 0
-739 -134 0
-739 738 0
739 134 -738 0
-740 -135 0
-740 739 0
740 135 -739 0
-741 -136 0
-741 740 0
741 136 -740 0
-742 -137 0
-742 741 0
742 137 -741 0
-743 -138 0
-743 742 0
743 138 -742 0
-744 -2 0
-744 -743 0
744 2 743 0
-745 593 0
-745 -744 0
745 -593 744 0
746 -16351 0
-746 16351 0
-747 -342 0
-747 746 0
747 342 -746 0
-748 342 0
-748 -746 0
748 -342 746 0
-749 -747 0
-749 -748 0
749 747 748 0
-750 2 0
-750 -749 0
750 -2 749 0
-751 745 0
-751 -750 0
751 -745 750 0
-752 -3 0
-752 746 0
752 3 -746 0
-753 3 0
-753 -746 0
753 -3 746 0
-754 -752 0
-754 -753 0
754 752 753 0
-755 -2 0
-755 -754 0
755 2 754 0
-756 751 0
-756 -755 0
756 -751 755 0
766 -16361 0
-766 16361 0
765 -16360 0
-765 16360 0
764 -16359 0
-764 16359 0
763 -16358 0
-763 16358 0
762 -16357 0
-762 16357 0
761 -16356 0
-761 16356 0
760 -16355 0
-760 16355 0
759 -16354 0
-759 16354 0
757 -16352 0
-757 16352 0
758 -16353 0
-758 16353 0
-767 757 0
-767 -758 0
767 -757 758 0
-768 -759 0
-768 767 0
768 759 -767 0
-769 -760 0
-769 768 0
769 760 -768 0
-770 -761 0
-770 769 0
770 761 -769 0
-771 -762 0
-771 770 0
771 762 -770 0
-772 -763 0
-772 771 0
772 763 -771 0
-773 -764 0
-773 772 0
773 764 -772 0
-774 -765 0
-774 773 0
774 765 -773 0
-775 -766 0
-775 774 0
775 766 -774 0
-776 2 0
-776 -775 0
776 -2 775 0
-777 756 0
-777 -776 0
777 -756 776 0
-778 -757 0
-778 -758 0
778 757 758 0
-779 -759 0
-779 778 0
779 759 -778 0
-780 -760 0
-780 779 0
780 760 -779 0
-781 -761 0
-781 780 0
781 761 -780 0
-782 -762 0
-782 781 0
782 762 -781 0
-783 -763 0
-783 782 0
783 763 -782 0
-784 -764 0
-784 783 0
784 764 -783 0
-785 -765 0
-785 784 0
785 765 -784 0
-786 -766 0
-786 785 0
786 766 -785 0
-787 -2 0
-787 -786 0
787 2 786 0
-788 777 0
-788 -787 0
788 -777 787 0
798 -16371 0
-798 16371 0
797 -16370 0
-797 16370 0
796 -16369 0
-796 16369 0
795 -16368 0
-795 16368 0
794 -16367 0
-794 16367 0
793 -16366 0
-793 16366 0
792 -16365 0
-792 16365 0
791 -16364 0
-791 16364 0
789 -16362 0
-789 16362 0
790 -16363 0
-790 16363 0
-799 789 0
-799 -790 0
799 -789 790 0
-800 -791 0
-800 799 0
800 791 -799 0
-801 -792 0
-801 800 0
801 792 -800 0
-802 -793 0
-802 801 0
802 793 -801 0
-803 -794 0
-803 802 0
803 794 -802 0
-804 -795 0
-804 803 0
804 795 -803 0
-805 -796 0
-805 804 0
805 796 -804 0
-806 -797 0
-806 805 0
806 797 -805 0
-807 -798 0
-807 806 0
807 798 -806 0
-808 746 0
-808 -807 0
808 -746 807 0
-809 788 0
-809 -808 0
809 -788 808 0
-810 -789 0
-810 -790 0
810 789 790 0
-811 -791 0
-811 810 0
811 791 -810 0
-812 -792 0
-812 811 0
812 792 -811 0
-813 -793 0
-813 812 0
813 793 -812 0
-814 -794 0
-814 813 0
814 794 -813 0
-815 -795 0
-815 814 0
815 795 -814 0
-816 -796 0
-816 815 0
816 796 -815 0
-817 -797 0
-817 816 0
817 797 -816 0
-818 -798 0
-818 817 0
818 798 -817 0
-819 -746 0
-819 -818 0
819 746 818 0
-820 809 0
-820 -819 0
820 -809 819 0
883 -16434 0
-883 16434 0
882 -16433 0
-882 16433 0
881 -16432 0
-881 16432 0
880 -16431 0
-880 16431 0
879 -16430 0
-879 16430 0
878 -16429 0
-878 16429 0
877 -16428 0
-877 16428 0
876 -16427 0
-876 16427 0
875 -16426 0
-875 16426 0
874 -16425 0
-874 16425 0
873 -16424 0
-873 16424 0
872 -16423 0
-872 16423 0
871 -16422 0
-871 16422 0
870 -16421 0
-870 16421 0
869 -16420 0
-869 16420 0
868 -16419 0
-868 16419 0
867 -16418 0
-867 16418 0
866 -16417 0
-866 16417 0
865 -16416 0
-865 16416 0
864 -16415 0
-864 16415 0
863 -16414 0
-863 16414 0
862 -16413 0
-862 16413 0
861 -16412 0
-861 16412 0
860 -16411 0
-860 16411 0
859 -16410 0
-859 16410 0
858 -16409 0
-858 16409 0
857 -16408 0
-857 16408 0
856 -16407 0
-856 16407 0
855 -16406 0
-855 16406 0
854 -16405 0
-854 16405 0
853 -16404 0
-853 16404 0
852 -16403 0
-852 16403 0
851 -16402 0
-851 16402 0
-974 -430 0
-974 851 0
974 430 -851 0
-975 430 0
-975 -851 0
975 -430 851 0
-976 -974 0
-976 -975 0
976 974 975 0
850 -16401 0
-850 16401 0
-971 -432 0
-971 850 0
971 432 -850 0
-972 432 0
-972 -850 0
972 -432 850 0
-973 -971 0
-973 -972 0
973 971 972 0
849 -16400 0
-849 16400 0
-968 -429 0
-968 849 0
968 429 -849 0
-969 429 0
-969 -849 0
969 -429 849 0
-970 -968 0
-970 -969 0
970 968 969 0
848 -16399 0
-848 16399 0
-965 -426 0
-965 848 0
965 426 -848 0
-966 426 0
-966 -848 0
966 -426 848 0
-967 -965 0
-967 -966 0
967 965 966 0
847 -16398 0
-847 16398 0
-962 -423 0
-962 847 0
962 423 -847 0
-963 423 0
-963 -847 0
963 -423 847 0
-964 -962 0
-964 -963 0
964 962 963 0
846 -16397 0
-846 16397 0
-959 -420 0
-959 846 0
959 420 -846 0
-960 420 0
-960 -846 0
960 -420 846 0
-961 -959 0
-961 -960 0
961 959 960 0
845 -16396 0
-845 16396 0
-956 -417 0
-956 845 0
956 417 -845 0
-957 417 0
-957 -845 0
957 -417 845 0
-958 -956 0
-958 -957 0
958 956 957 0
844 -16395 0
-844 16395 0
-953 -414 0
-953 844 0
953 414 -844 0
-954 414 0
-954 -844 0
954 -414 844 0
-955 -953 0
-955 -954 0
955 953 954 0
843 -16394 0
-843 16394 0
-950 -411 0
-950 843 0
950 411 -843 0
-951 411 0
-951 -843 0
951 -411 843 0
-952 -950 0
-952 -951 0
952 950 951 0
842 -16393 0
-842 16393 0
-947 -408 0
-947 842 0
947 408 -842 0
-948 408 0
-948 -842 0
948 -408 842 0
-949 -947 0
-949 -948 0
949 947 948 0
841 -16392 0
-841 16392 0
-944 -405 0
-944 841 0
944 405 -841 0
-945 405 0
-945 -841 0
945 -405 841 0
-946 -944 0
-946 -945 0
946 944 945 0
840 -16391 0
-840 16391 0
-941 -402 0
-941 840 0
941 402 -840 0
-942 402 0
-942 -840 0
942 -402 840 0
-943 -941 0
-943 -942 0
943 941 942 0
839 -16390 0
-839 16390 0
-938 -399 0
-938 839 0
938 399 -839 0
-939 399 0
-939 -839 0
939 -399 839 0
-940 -938 0
-940 -939 0
940 938 939 0
838 -16389 0
-838 16389 0
-935 -396 0
-935 838 0
935 396 -838 0
-936 396 0
-936 -838 0
936 -396 838 0
-937 -935 0
-937 -936 0
937 935 936 0
837 -16388 0
-837 16388 0
-932 -393 0
-932 837 0
932 393 -837 0
-933 393 0
-933 -837 0
933 -393 837 0
-934 -932 0
-934 -933 0
934 932 933 0
836 -16387 0
-836 16387 0
-929 -390 0
-929 836 0
929 390 -836 0
-930 390 0
-930 -836 0
930 -390 836 0
-931 -929 0
-931 -930 0
931 929 930 0
835 -16386 0
-835 16386 0
-926 -387 0
-926 835 0
926 387 -835 0
-927 387 0
-927 -835 0
927 -387 835 0
-928 -926 0
-928 -927 0
928 926 927 0
834 -16385 0
-834 16385 0
-923 -384 0
-923 834 0
923 384 -834 0
-924 384 0
-924 -834 0
924 -384 834 0
-925 -923 0
-925 -924 0
925 923 924 0
833 -16384 0
-833 16384 0
-920 -381 0
-920 833 0
920 381 -833 0
-921 381 0
-921 -833 0
921 -381 833 0
-922 -920 0
-922 -921 0
922 920 921 0
832 -16383 0
-832 16383 0
-917 -378 0
-917 832 0
917 378 -832 0
-918 378 0
-918 -832 0
918 -378 832 0
-919 -917 0
-919 -918 0
919 917 918 0
831 -16382 0
-831 16382 0
-914 -375 0
-914 831 0
914 375 -831 0
-915 375 0
-915 -831 0
915 -375 831 0
-916 -914 0
-916 -915 0
916 914 915 0
830 -16381 0
-830 16381 0
-911 -372 0
-911 830 0
911 372 -830 0
-912 372 0
-912 -830 0
912 -372 830 0
-913 -911 0
-913 -912 0
913 911 912 0
829 -16380 0
-829 16380 0
-908 -369 0
-908 829 0
908 369 -829 0
-909 369 0
-909 -829 0
909 -369 829 0
-910 -908 0
-910 -909 0
910 908 909 0
828 -16379 0
-828 16379 0
-905 -366 0
-905 828 0
905 366 -828 0
-906 366 0
-906 -828 0
906 -366 828 0
-907 -905 0
-907 -906 0
907 905 906 0
827 -16378 0
-827 16378 0
-902 -363 0
-902 827 0
902 363 -827 0
-903 363 0
-903 -827 0
903 -363 827 0
-904 -902 0
-904 -903 0
904 902 903 0
826 -16377 0
-826 16377 0
-899 -360 0
-899 826 0
899 360 -826 0
-900 360 0
-900 -826 0
900 -360 826 0
-901 -899 0
-901 -900 0
901 899 900 0
825 -16376 0
-825 16376 0
-896 -357 0
-896 825 0
896 357 -825 0
-897 357 0
-897 -825 0
897 -357 825 0
-898 -896 0
-898 -897 0
898 896 897 0
824 -16375 0
-824 16375 0
-893 -354 0
-893 824 0
893 354 -824 0
-894 354 0
-894 -824 0
894 -354 824 0
-895 -893 0
-895 -894 0
895 893 894 0
823 -16374 0
-823 16374 0
-890 -351 0
-890 823 0
890 351 -823 0
-891 351 0
-891 -823 0
891 -351 823 0
-892 -890 0
-892 -891 0
892 890 891 0
821 -16372 0
-821 16372 0
-884 -345 0
-884 821 0
884 345 -821 0
-885 345 0
-885 -821 0
885 -345 821 0
-886 -884 0
-886 -885 0
886 884 885 0
822 -16373 0
-822 16373 0
-887 -348 0
-887 822 0
887 348 -822 0
-888 348 0
-888 -822 0
888 -348 822 0
-889 -887 0
-889 -888 0
889 887 888 0
-977 886 0
-977 889 0
977 -886 -889 0
-978 892 0
-978 977 0
978 -892 -977 0
-979 895 0
-979 978 0
979 -895 -978 0
-980 898 0
-980 979 0
980 -898 -979 0
-981 901 0
-981 980 0
981 -901 -980 0
-982 904 0
-982 981 0
982 -904 -981 0
-983 907 0
-983 982 0
983 -907 -982 0
-984 910 0
-984 983 0
984 -910 -983 0
-985 913 0
-985 984 0
985 -913 -984 0
-986 916 0
-986 985 0
986 -916 -985 0
-987 919 0
-987 986 0
987 -919 -986 0
-988 922 0
-988 987 0
988 -922 -987 0
-989 925 0
-989 988 0
989 -925 -988 0
-990 928 0
-990 989 0
990 -928 -989 0
-991 931 0
-991 990 0
991 -931 -990 0
-992 934 0
-992 991 0
992 -934 -991 0
-993 937 0
-993 992 0
993 -937 -992 0
-994 940 0
-994 993 0
994 -940 -993 0
-995 943 0
-995 994 0
995 -943 -994 0
-996 946 0
-996 995 0
996 -946 -995 0
-997 949 0
-997 996 0
997 -949 -996 0
-998 952 0
-998 997 0
998 -952 -997 0
-999 955 0
-999 998 0
999 -955 -998 0
-1000 958 0
-1000 999 0
1000 -958 -999 0
-1001 961 0
-1001 1000 0
1001 -961 -1000 0
-1002 964 0
-1002 1001 0
1002 -964 -1001 0
-1003 967 0
-1003 1002 0
1003 -967 -1002 0
-1004 970 0
-1004 1003 0
1004 -970 -1003 0
-1005 973 0
-1005 1004 0
1005 -973 -1004 0
-1006 976 0
-1006 1005 0
1006 -976 -1005 0
-1007 -852 0
-1007 1006 0
1007 852 -1006 0
-1008 -853 0
-1008 1007 0
1008 853 -1007 0
-1009 -854 0
-1009 1008 0
1009 854 -1008 0
-1010 -855 0
-1010 1009 0
1010 855 -1009 0
-1011 -856 0
-1011 1010 0
1011 856 -1010 0
-1012 -857 0
-1012 1011 0
1012 857 -1011 0
-1013 -858 0
-1013 1012 0
1013 858 -1012 0
-1014 -859 0
-1014 1013 0
1014 859 -1013 0
-1015 -860 0
-1015 1014 0
1015 860 -1014 0
-1016 -861 0
-1016 1015 0
1016 861 -1015 0
-1017 -862 0
-1017 1016 0
1017 862 -1016 0
-1018 -863 0
-1018 1017 0
1018 863 -1017 0
-1019 -864 0
-1019 1018 0
1019 864 -1018 0
-1020 -865 0
-1020 1019 0
1020 865 -1019 0
-1021 -866 0
-1021 1020 0
1021 866 -1020 0
-1022 -867 0
-1022 1021 0
1022 867 -1021 0
-1023 -868 0
-1023 1022 0
1023 868 -1022 0
-1024 -869 0
-1024 1023 0
1024 869 -1023 0
-1025 -870 0
-1025 1024 0
1025 870 -1024 0
-1026 -871 0
-1026 1025 0
1026 871 -1025 0
-1027 -872 0
-1027 1026 0
1027 872 -1026 0
-1028 -873 0
-1028 1027 0
1028 873 -1027 0
-1029 -874 0
-1029 1028 0
1029 874 -1028 0
-1030 -875 0
-1030 1029 0
1030 875 -1029 0
-1031 -876 0
-1031 1030 0
1031 876 -1030 0
-1032 -877 0
-1032 1031 0
1032 877 -1031 0
-1033 -878 0
-1033 1032 0
1033 878 -1032 0
-1034 -879 0
-1034 1033 0
1034 879 -1033 0
-1035 -880 0
-1035 1034 0
1035 880 -1034 0
-1036 -881 0
-1036 1035 0
1036 881 -1035 0
-1037 -882 0
-1037 1036 0
1037 882 -1036 0
-1038 -883 0
-1038 1037 0
1038 883 -1037 0
-1039 2 0
-1039 -1038 0
1039 -2 1038 0
-1040 820 0
-1040 -1039 0
1040 -820 1039 0
-1122 -31 0
-1122 848 0
1122 31 -848 0
-1123 31 0
-1123 -848 0
1123 -31 848 0
-1124 -1122 0
-1124 -1123 0
1124 1122 1123 0
-1119 -30 0
-1119 847 0
1119 30 -847 0
-1120 30 0
-1120 -847 0
1120 -30 847 0
-1121 -1119 0
-1121 -1120 0
1121 1119 1120 0
-1116 -29 0
-1116 846 0
1116 29 -846 0
-1117 29 0
-1117 -846 0
1117 -29 846 0
-1118 -1116 0
-1118 -1117 0
1118 1116 1117 0
-1113 -28 0
-1113 845 0
1113 28 -845 0
-1114 28 0
-1114 -845 0
1114 -28 845 0
-1115 -1113 0
-1115 -1114 0
1115 1113 1114 0
-1110 -27 0
-1110 844 0
1110 27 -844 0
-1111 27 0
-1111 -844 0
1111 -27 844 0
-1112 -1110 0
-1112 -1111 0
1112 1110 1111 0
-1107 -26 0
-1107 843 0
1107 26 -843 0
-1108 26 0
-1108 -843 0
1108 -26 843 0
-1109 -1107 0
-1109 -1108 0
1109 1107 1108 0
-1104 -25 0
-1104 842 0
1104 25 -842 0
-1105 25 0
-1105 -842 0
1105 -25 842 0
-1106 -1104 0
-1106 -1105 0
1106 1104 1105 0
-1101 -24 0
-1101 841 0
1101 24 -841 0
-1102 24 0
-1102 -841 0
1102 -24 841 0
-1103 -1101 0
-1103 -1102 0
1103 1101 1102 0
-1098 -23 0
-1098 840 0
1098 23 -840 0
-1099 23 0
-1099 -840 0
1099 -23 840 0
-1100 -1098 0
-1100 -1099 0
1100 1098 1099 0
-1095 -22 0
-1095 839 0
1095 22 -839 0
-1096 22 0
-1096 -839 0
1096 -22 839 0
-1097 -1095 0
-1097 -1096 0
1097 1095 1096 0
-1092 -21 0
-1092 838 0
1092 21 -838 0
-1093 21 0
-1093 -838 0
1093 -21 838 0
-1094 -1092 0
-1094 -1093 0
1094 1092 1093 0
-1089 -20 0
-1089 837 0
1089 20 -837 0
-1090 20 0
-1090 -837 0
1090 -20 837 0
-1091 -1089 0
-1091 -1090 0
1091 1089 1090 0
-1086 -19 0
-1086 836 0
1086 19 -836 0
-1087 19 0
-1087 -836 0
1087 -19 836 0
-1088 -1086 0
-1088 -1087 0
1088 1086 1087 0
-1083 -18 0
-1083 835 0
1083 18 -835 0
-1084 18 0
-1084 -835 0
1084 -18 835 0
-1085 -1083 0
-1085 -1084 0
1085 1083 1084 0
-1080 -17 0
-1080 834 0
1080 17 -834 0
-1081 17 0
-1081 -834 0
1081 -17 834 0
-1082 -1080 0
-1082 -1081 0
1082 1080 1081 0
-1077 -16 0
-1077 833 0
1077 16 -833 0
-1078 16 0
-1078 -833 0
1078 -16 833 0
-1079 -1077 0
-1079 -1078 0
1079 1077 1078 0
-1074 -15 0
-1074 832 0
1074 15 -832 0
-1075 15 0
-1075 -832 0
1075 -15 832 0
-1076 -1074 0
-1076 -1075 0
1076 1074 1075 0
-1071 -14 0
-1071 831 0
1071 14 -831 0
-1072 14 0
-1072 -831 0
1072 -14 831 0
-1073 -1071 0
-1073 -1072 0
1073 1071 1072 0
-1068 -13 0
-1068 830 0
1068 13 -830 0
-1069 13 0
-1069 -830 0
1069 -13 830 0
-1070 -1068 0
-1070 -1069 0
1070 1068 1069 0
-1065 -12 0
-1065 829 0
1065 12 -829 0
-1066 12 0
-1066 -829 0
1066 -12 829 0
-1067 -1065 0
-1067 -1066 0
1067 1065 1066 0
-1062 -11 0
-1062 828 0
1062 11 -828 0
-1063 11 0
-1063 -828 0
1063 -11 828 0
-1064 -1062 0
-1064 -1063 0
1064 1062 1063 0
-1059 -10 0
-1059 827 0
1059 10 -827 0
-1060 10 0
-1060 -827 0
1060 -10 827 0
-1061 -1059 0
-1061 -1060 0
1061 1059 1060 0
-1056 -9 0
-1056 826 0
1056 9 -826 0
-1057 9 0
-1057 -826 0
1057 -9 826 0
-1058 -1056 0
-1058 -1057 0
1058 1056 1057 0
-1053 -8 0
-1053 825 0
1053 8 -825 0
-1054 8 0
-1054 -825 0
1054 -8 825 0
-1055 -1053 0
-1055 -1054 0
1055 1053 1054 0
-1050 -7 0
-1050 824 0
1050 7 -824 0
-1051 7 0
-1051 -824 0
1051 -7 824 0
-1052 -1050 0
-1052 -1051 0
1052 1050 1051 0
-1047 -6 0
-1047 823 0
1047 6 -823 0
-1048 6 0
-1048 -823 0
1048 -6 823 0
-1049 -1047 0
-1049 -1048 0
1049 1047 1048 0
-1041 -4 0
-1041 821 0
1041 4 -821 0
-1042 4 0
-1042 -821 0
1042 -4 821 0
-1043 -1041 0
-1043 -1042 0
1043 1041 1042 0
-1044 -5 0
-1044 822 0
1044 5 -822 0
-1045 5 0
-1045 -822 0
1045 -5 822 0
-1046 -1044 0
-1046 -1045 0
1046 1044 1045 0
-1125 1043 0
-1125 1046 0
1125 -1043 -1046 0
-1126 1049 0
-1126 1125 0
1126 -1049 -1125 0
-1127 1052 0
-1127 1126 0
1127 -1052 -1126 0
-1128 1055 0
-1128 1127 0
1128 -1055 -1127 0
-1129 1058 0
-1129 1128 0
1129 -1058 -1128 0
-1130 1061 0
-1130 1129 0
1130 -1061 -1129 0
-1131 1064 0
-1131 1130 0
1131 -1064 -1130 0
-1132 1067 0
-1132 1131 0
1132 -1067 -1131 0
-1133 1070 0
-1133 1132 0
1133 -1070 -1132 0
-1134 1073 0
-1134 1133 0
1134 -1073 -1133 0
-1135 1076 0
-1135 1134 0
1135 -1076 -1134 0
-1136 1079 0
-1136 1135 0
1136 -1079 -1135 0
-1137 1082 0
-1137 1136 0
1137 -1082 -1136 0
-1138 1085 0
-1138 1137 0
1138 -1085 -1137 0
-1139 1088 0
-1139 1138 0
1139 -1088 -1138 0
-1140 1091 0
-1140 1139 0
1140 -1091 -1139 0
-1141 1094 0
-1141 1140 0
1141 -1094 -1140 0
-1142 1097 0
-1142 1141 0
1142 -1097 -1141 0
-1143 1100 0
-1143 1142 0
1143 -1100 -1142 0
-1144 1103 0
-1144 1143 0
1144 -1103 -1143 0
-1145 1106 0
-1145 1144 0
1145 -1106 -1144 0
-1146 1109 0
-1146 1145 0
1146 -1109 -1145 0
-1147 1112 0
-1147 1146 0
1147 -1112 -1146 0
-1148 1115 0
-1148 1147 0
1148 -1115 -1147 0
-1149 1118 0
-1149 1148 0
1149 -1118 -1148 0
-1150 1121 0
-1150 1149 0
1150 -1121 -1149 0
-1151 1124 0
-1151 1150 0
1151 -1124 -1150 0
-1152 -849 0
-1152 1151 0
1152 849 -1151 0
-1153 -850 0
-1153 1152 0
1153 850 -1152 0
-1154 -851 0
-1154 1153 0
1154 851 -1153 0
-1155 -852 0
-1155 1154 0
1155 852 -1154 0
-1156 -853 0
-1156 1155 0
1156 853 -1155 0
-1157 -854 0
-1157 1156 0
1157 854 -1156 0
-1158 -855 0
-1158 1157 0
1158 855 -1157 0
-1159 -856 0
-1159 1158 0
1159 856 -1158 0
-1160 -857 0
-1160 1159 0
1160 857 -1159 0
-1161 -858 0
-1161 1160 0
1161 858 -1160 0
-1162 -859 0
-1162 1161 0
1162 859 -1161 0
-1163 -860 0
-1163 1162 0
1163 860 -1162 0
-1164 -861 0
-1164 1163 0
1164 861 -1163 0
-1165 -862 0
-1165 1164 0
1165 862 -1164 0
-1166 -863 0
-1166 1165 0
1166 863 -1165 0
-1167 -864 0
-1167 1166 0
1167 864 -1166 0
-1168 -865 0
-1168 1167 0
1168 865 -1167 0
-1169 -866 0
-1169 1168 0
1169 866 -1168 0
-1170 -867 0
-1170 1169 0
1170 867 -1169 0
-1171 -868 0
-1171 1170 0
1171 868 -1170 0
-1172 -869 0
-1172 1171 0
1172 869 -1171 0
-1173 -870 0
-1173 1172 0
1173 870 -1172 0
-1174 -871 0
-1174 1173 0
1174 871 -1173 0
-1175 -872 0
-1175 1174 0
1175 872 -1174 0
-1176 -873 0
-1176 1175 0
1176 873 -1175 0
-1177 -874 0
-1177 1176 0
1177 874 -1176 0
-1178 -875 0
-1178 1177 0
1178 875 -1177 0
-1179 -876 0
-1179 1178 0
1179 876 -1178 0
-1180 -877 0
-1180 1179 0
1180 877 -1179 0
-1181 -878 0
-1181 1180 0
1181 878 -1180 0
-1182 -879 0
-1182 1181 0
1182 879 -1181 0
-1183 -880 0
-1183 1182 0
1183 880 -1182 0
-1184 -881 0
-1184 1183 0
1184 881 -1183 0
-1185 -882 0
-1185 1184 0
1185 882 -1184 0
-1186 -883 0
-1186 1185 0
1186 883 -1185 0
-1187 -2 0
-1187 -1186 0
1187 2 1186 0
-1188 1040 0
-1188 -1187 0
1188 -1040 1187 0
1252 -16498 0
-1252 16498 0
1251 -16497 0
-1251 16497 0
-1676 136 0
-1676 137 0
1676 -136 -137 0
-1669 135 0
-1669 136 0
1669 -135 -136 0
-1662 134 0
-1662 135 0
1662 -134 -135 0
-1655 133 0
-1655 134 0
1655 -133 -134 0
-1648 132 0
-1648 133 0
1648 -132 -133 0
-1641 131 0
-1641 132 0
1641 -131 -132 0
-1634 130 0
-1634 131 0
1634 -130 -131 0
-1627 129 0
-1627 130 0
1627 -129 -130 0
-1620 128 0
-1620 129 0
1620 -128 -129 0
-1613 127 0
-1613 128 0
1613 -127 -128 0
-1606 126 0
-1606 127 0
1606 -126 -127 0
-1599 125 0
-1599 126 0
1599 -125 -126 0
-1592 124 0
-1592 125 0
1592 -124 -125 0
-1585 123 0
-1585 124 0
1585 -123 -124 0
-1578 122 0
-1578 123 0
1578 -122 -123 0
-1571 121 0
-1571 122 0
1571 -121 -122 0
-1564 120 0
-1564 121 0
1564 -120 -121 0
-1557 119 0
-1557 120 0
1557 -119 -120 0
-1550 118 0
-1550 119 0
1550 -118 -119 0
-1543 117 0
-1543 118 0
1543 -117 -118 0
-1536 116 0
-1536 117 0
1536 -116 -117 0
-1529 115 0
-1529 116 0
1529 -115 -116 0
-1522 114 0
-1522 115 0
1522 -114 -115 0
-1515 113 0
-1515 114 0
1515 -113 -114 0
-1508 112 0
-1508 113 0
1508 -112 -113 0
-1501 111 0
-1501 112 0
1501 -111 -112 0
-1494 110 0
-1494 111 0
1494 -110 -111 0
-1487 109 0
-1487 110 0
1487 -109 -110 0
-1480 108 0
-1480 109 0
1480 -108 -109 0
-1473 107 0
-1473 108 0
1473 -107 -108 0
-1466 106 0
-1466 107 0
1466 -106 -107 0
-1459 105 0
-1459 106 0
1459 -105 -106 0
-1452 104 0
-1452 105 0
1452 -104 -105 0
-1445 103 0
-1445 104 0
1445 -103 -104 0
-1438 102 0
-1438 103 0
1438 -102 -103 0
-1431 101 0
-1431 102 0
1431 -101 -102 0
-1424 100 0
-1424 101 0
1424 -100 -101 0
-1417 99 0
-1417 100 0
1417 -99 -100 0
-1410 98 0
-1410 99 0
1410 -98 -99 0
-1403 97 0
-1403 98 0
1403 -97 -98 0
-1396 96 0
-1396 97 0
1396 -96 -97 0
-1389 95 0
-1389 96 0
1389 -95 -96 0
-1382 94 0
-1382 95 0
1382 -94 -95 0
-1375 93 0
-1375 94 0
1375 -93 -94 0
-1368 92 0
-1368 93 0
1368 -92 -93 0
-1361 91 0
-1361 92 0
1361 -91 -92 0
-1354 90 0
-1354 91 0
1354 -90 -91 0
-1347 89 0
-1347 90 0
1347 -89 -90 0
-1340 88 0
-1340 89 0
1340 -88 -89 0
-1333 87 0
-1333 88 0
1333 -87 -88 0
-1326 86 0
-1326 87 0
1326 -86 -87 0
-1319 85 0
-1319 86 0
1319 -85 -86 0
-1312 84 0
-1312 85 0
1312 -84 -85 0
-1305 83 0
-1305 84 0
1305 -83 -84 0
-1298 82 0
-1298 83 0
1298 -82 -83 0
-1291 81 0
-1291 82 0
1291 -81 -82 0
-1284 80 0
-1284 81 0
1284 -80 -81 0
-1277 79 0
-1277 80 0
1277 -79 -80 0
-1270 78 0
-1270 79 0
1270 -78 -79 0
-1263 77 0
-1263 78 0
1263 -77 -78 0
-1256 76 0
-1256 77 0
1256 -76 -77 0
-1253 75 0
-1253 76 0
1253 -75 -76 0
-1257 -76 0
-1257 -77 0
1257 76 77 0
-1258 -1256 0
-1258 -1257 0
1258 1256 1257 0
-1259 1253 0
-1259 1258 0
1259 -1253 -1258 0
-1262 -1256 0
-1262 -1259 0
1262 1256 1259 0
-1264 -77 0
-1264 -78 0
1264 77 78 0
-1265 -1263 0
-1265 -1264 0
1265 1263 1264 0
-1266 -1262 0
-1266 1265 0
1266 1262 -1265 0
-1269 -1263 0
-1269 -1266 0
1269 1263 1266 0
-1271 -78 0
-1271 -79 0
1271 78 79 0
-1272 -1270 0
-1272 -1271 0
1272 1270 1271 0
-1273 -1269 0
-1273 1272 0
1273 1269 -1272 0
-1276 -1270 0
-1276 -1273 0
1276 1270 1273 0
-1278 -79 0
-1278 -80 0
1278 79 80 0
-1279 -1277 0
-1279 -1278 0
1279 1277 1278 0
-1280 -1276 0
-1280 1279 0
1280 1276 -1279 0
-1283 -1277 0
-1283 -1280 0
1283 1277 1280 0
-1285 -80 0
-1285 -81 0
1285 80 81 0
-1286 -1284 0
-1286 -1285 0
1286 1284 1285 0
-1287 -1283 0
-1287 1286 0
1287 1283 -1286 0
-1290 -1284 0
-1290 -1287 0
1290 1284 1287 0
-1292 -81 0
-1292 -82 0
1292 81 82 0
-1293 -1291 0
-1293 -1292 0
1293 1291 1292 0
-1294 -1290 0
-1294 1293 0
1294 1290 -1293 0
-1297 -1291 0
-1297 -1294 0
1297 1291 1294 0
-1299 -82 0
-1299 -83 0
1299 82 83 0
-1300 -1298 0
-1300 -1299 0
1300 1298 1299 0
-1301 -1297 0
-1301 1300 0
1301 1297 -1300 0
-1304 -1298 0
-1304 -1301 0
1304 1298 1301 0
-1306 -83 0
-1306 -84 0
1306 83 84 0
-1307 -1305 0
-1307 -1306 0
1307 1305 1306 0
-1308 -1304 0
-1308 1307 0
1308 1304 -1307 0
-1311 -1305 0
-1311 -1308 0
1311 1305 1308 0
-1313 -84 0
-1313 -85 0
1313 84 85 0
-1314 -1312 0
-1314 -1313 0
1314 1312 1313 0
-1315 -1311 0
-1315 1314 0
1315 1311 -1314 0
-1318 -1312 0
-1318 -1315 0
1318 1312 1315 0
-1320 -85 0
-1320 -86 0
1320 85 86 0
-1321 -1319 0
-1321 -1320 0
1321 1319 1320 0
-1322 -1318 0
-1322 1321 0
1322 1318 -1321 0
-1325 -1319 0
-1325 -1322 0
1325 1319 1322 0
-1327 -86 0
-1327 -87 0
1327 86 87 0
-1328 -1326 0
-1328 -1327 0
1328 1326 1327 0
-1329 -1325 0
-1329 1328 0
1329 1325 -1328 0
-1332 -1326 0
-1332 -1329 0
1332 1326 1329 0
-1334 -87 0
-1334 -88 0
1334 87 88 0
-1335 -1333 0
-1335 -1334 0
1335 1333 1334 0
-1336 -1332 0
-1336 1335 0
1336 1332 -1335 0
-1339 -1333 0
-1339 -1336 0
1339 1333 1336 0
-1341 -88 0
-1341 -89 0
1341 88 89 0
-1342 -1340 0
-1342 -1341 0
1342 1340 1341 0
-1343 -1339 0
-1343 1342 0
1343 1339 -1342 0
-1346 -1340 0
-1346 -1343 0
1346 1340 1343 0
-1348 -89 0
-1348 -90 0
1348 89 90 0
-1349 -1347 0
-1349 -1348 0
1349 1347 1348 0
-1350 -1346 0
-1350 1349 0
1350 1346 -1349 0
-1353 -1347 0
-1353 -1350 0
1353 1347 1350 0
-1355 -90 0
-1355 -91 0
1355 90 91 0
-1356 -1354 0
-1356 -1355 0
1356 1354 1355 0
-1357 -1353 0
-1357 1356 0
1357 1353 -1356 0
-1360 -1354 0
-1360 -1357 0
1360 1354 1357 0
-1362 -91 0
-1362 -92 0
1362 91 92 0
-1363 -1361 0
-1363 -1362 0
1363 1361 1362 0
-1364 -1360 0
-1364 1363 0
1364 1360 -1363 0
-1367 -1361 0
-1367 -1364 0
1367 1361 1364 0
-1369 -92 0
-1369 -93 0
1369 92 93 0
-1370 -1368 0
-1370 -1369 0
1370 1368 1369 0
-1371 -1367 0
-1371 1370 0
1371 1367 -1370 0
-1374 -1368 0
-1374 -1371 0
1374 1368 1371 0
-1376 -93 0
-1376 -94 0
1376 93 94 0
-1377 -1375 0
-1377 -1376 0
1377 1375 1376 0
-1378 -1374 0
-1378 1377 0
1378 1374 -1377 0
-1381 -1375 0
-1381 -1378 0
1381 1375 1378 0
-1383 -94 0
-1383 -95 0
1383 94 95 0
-1384 -1382 0
-1384 -1383 0
1384 1382 1383 0
-1385 -1381 0
-1385 1384 0
1385 1381 -1384 0
-1388 -1382 0
-1388 -1385 0
1388 1382 1385 0
-1390 -95 0
-1390 -96 0
1390 95 96 0
-1391 -1389 0
-1391 -1390 0
1391 1389 1390 0
-1392 -1388 0
-1392 1391 0
1392 1388 -1391 0
-1395 -1389 0
-1395 -1392 0
1395 1389 1392 0
-1397 -96 0
-1397 -97 0
1397 96 97 0
-1398 -1396 0
-1398 -1397 0
1398 1396 1397 0
-1399 -1395 0
-1399 1398 0
1399 1395 -1398 0
-1402 -1396 0
-1402 -1399 0
1402 1396 1399 0
-1404 -97 0
-1404 -98 0
1404 97 98 0
-1405 -1403 0
-1405 -1404 0
1405 1403 1404 0
-1406 -1402 0
-1406 1405 0
1406 1402 -1405 0
-1409 -1403 0
-1409 -1406 0
1409 1403 1406 0
-1411 -98 0
-1411 -99 0
1411 98 99 0
-1412 -1410 0
-1412 -1411 0
1412 1410 1411 0
-1413 -1409 0
-1413 1412 0
1413 1409 -1412 0
-1416 -1410 0
-1416 -1413 0
1416 1410 1413 0
-1418 -99 0
-1418 -100 0
1418 99 100 0
-1419 -1417 0
-1419 -1418 0
1419 1417 1418 0
-1420 -1416 0
-1420 1419 0
1420 1416 -1419 0
-1423 -1417 0
-1423 -1420 0
1423 1417 1420 0
-1425 -100 0
-1425 -101 0
1425 100 101 0
-1426 -1424 0
-1426 -1425 0
1426 1424 1425 0
-1427 -1423 0
-1427 1426 0
1427 1423 -1426 0
-1430 -1424 0
-1430 -1427 0
1430 1424 1427 0
-1432 -101 0
-1432 -102 0
1432 101 102 0
-1433 -1431 0
-1433 -1432 0
1433 1431 1432 0
-1434 -1430 0
-1434 1433 0
1434 1430 -1433 0
-1437 -1431 0
-1437 -1434 0
1437 1431 1434 0
-1439 -102 0
-1439 -103 0
1439 102 103 0
-1440 -1438 0
-1440 -1439 0
1440 1438 1439 0
-1441 -1437 0
-1441 1440 0
1441 1437 -1440 0
-1444 -1438 0
-1444 -1441 0
1444 1438 1441 0
-1446 -103 0
-1446 -104 0
1446 103 104 0
-1447 -1445 0
-1447 -1446 0
1447 1445 1446 0
-1448 -1444 0
-1448 1447 0
1448 1444 -1447 0
-1451 -1445 0
-1451 -1448 0
1451 1445 1448 0
-1453 -104 0
-1453 -105 0
1453 104 105 0
-1454 -1452 0
-1454 -1453 0
1454 1452 1453 0
-1455 -1451 0
-1455 1454 0
1455 1451 -1454 0
-1458 -1452 0
-1458 -1455 0
1458 1452 1455 0
-1460 -105 0
-1460 -106 0
1460 105 106 0
-1461 -1459 0
-1461 -1460 0
1461 1459 1460 0
-1462 -1458 0
-1462 1461 0
1462 1458 -1461 0
-1465 -1459 0
-1465 -1462 0
1465 1459 1462 0
-1467 -106 0
-1467 -107 0
1467 106 107 0
-1468 -1466 0
-1468 -1467 0
1468 1466 1467 0
-1469 -1465 0
-1469 1468 0
1469 1465 -1468 0
-1472 -1466 0
-1472 -1469 0
1472 1466 1469 0
-1474 -107 0
-1474 -108 0
1474 107 108 0
-1475 -1473 0
-1475 -1474 0
1475 1473 1474 0
-1476 -1472 0
-1476 1475 0
1476 1472 -1475 0
-1479 -1473 0
-1479 -1476 0
1479 1473 1476 0
-1481 -108 0
-1481 -109 0
1481 108 109 0
-1482 -1480 0
-1482 -1481 0
1482 1480 1481 0
-1483 -1479 0
-1483 1482 0
1483 1479 -1482 0
-1486 -1480 0
-1486 -1483 0
1486 1480 1483 0
-1488 -109 0
-1488 -110 0
1488 109 110 0
-1489 -1487 0
-1489 -1488 0
1489 1487 1488 0
-1490 -1486 0
-1490 1489 0
1490 1486 -1489 0
-1493 -1487 0
-1493 -1490 0
1493 1487 1490 0
-1495 -110 0
-1495 -111 0
1495 110 111 0
-1496 -1494 0
-1496 -1495 0
1496 1494 1495 0
-1497 -1493 0
-1497 1496 0
1497 1493 -1496 0
-1500 -1494 0
-1500 -1497 0
1500 1494 1497 0
-1502 -111 0
-1502 -112 0
1502 111 112 0
-1503 -1501 0
-1503 -1502 0
1503 1501 1502 0
-1504 -1500 0
-1504 1503 0
1504 1500 -1503 0
-1507 -1501 0
-1507 -1504 0
1507 1501 1504 0
-1509 -112 0
-1509 -113 0
1509 112 113 0
-1510 -1508 0
-1510 -1509 0
1510 1508 1509 0
-1511 -1507 0
-1511 1510 0
1511 1507 -1510 0
-1514 -1508 0
-1514 -1511 0
1514 1508 1511 0
-1516 -113 0
-1516 -114 0
1516 113 114 0
-1517 -1515 0
-1517 -1516 0
1517 1515 1516 0
-1518 -1514 0
-1518 1517 0
1518 1514 -1517 0
-1521 -1515 0
-1521 -1518 0
1521 1515 1518 0
-1523 -114 0
-1523 -115 0
1523 114 115 0
-1524 -1522 0
-1524 -1523 0
1524 1522 1523 0
-1525 -1521 0
-1525 1524 0
1525 1521 -1524 0
-1528 -1522 0
-1528 -1525 0
1528 1522 1525 0
-1530 -115 0
-1530 -116 0
1530 115 116 0
-1531 -1529 0
-1531 -1530 0
1531 1529 1530 0
-1532 -1528 0
-1532 1531 0
1532 1528 -1531 0
-1535 -1529 0
-1535 -1532 0
1535 1529 1532 0
-1537 -116 0
-1537 -117 0
1537 116 117 0
-1538 -1536 0
-1538 -1537 0
1538 1536 1537 0
-1539 -1535 0
-1539 1538 0
1539 1535 -1538 0
-1542 -1536 0
-1542 -1539 0
1542 1536 1539 0
-1544 -117 0
-1544 -118 0
1544 117 118 0
-1545 -1543 0
-1545 -1544 0
1545 1543 1544 0
-1546 -1542 0
-1546 1545 0
1546 1542 -1545 0
-1549 -1543 0
-1549 -1546 0
1549 1543 1546 0
-1551 -118 0
-1551 -119 0
1551 118 119 0
-1552 -1550 0
-1552 -1551 0
1552 1550 1551 0
-1553 -1549 0
-1553 1552 0
1553 1549 -1552 0
-1556 -1550 0
-1556 -1553 0
1556 1550 1553 0
-1558 -119 0
-1558 -120 0
1558 119 120 0
-1559 -1557 0
-1559 -1558 0
1559 1557 1558 0
-1560 -1556 0
-1560 1559 0
1560 1556 -1559 0
-1563 -1557 0
-1563 -1560 0
1563 1557 1560 0
-1565 -120 0
-1565 -121 0
1565 120 121 0
-1566 -1564 0
-1566 -1565 0
1566 1564 1565 0
-1567 -1563 0
-1567 1566 0
1567 1563 -1566 0
-1570 -1564 0
-1570 -1567 0
1570 1564 1567 0
-1572 -121 0
-1572 -122 0
1572 121 122 0
-1573 -1571 0
-1573 -1572 0
1573 1571 1572 0
-1574 -1570 0
-1574 1573 0
1574 1570 -1573 0
-1577 -1571 0
-1577 -1574 0
1577 1571 1574 0
-1579 -122 0
-1579 -123 0
1579 122 123 0
-1580 -1578 0
-1580 -1579 0
1580 1578 1579 0
-1581 -1577 0
-1581 1580 0
1581 1577 -1580 0
-1584 -1578 0
-1584 -1581 0
1584 1578 1581 0
-1586 -123 0
-1586 -124 0
1586 123 124 0
-1587 -1585 0
-1587 -1586 0
1587 1585 1586 0
-1588 -1584 0
-1588 1587 0
1588 1584 -1587 0
-1591 -1585 0
-1591 -1588 0
1591 1585 1588 0
-1593 -124 0
-1593 -125 0
1593 124 125 0
-1594 -1592 0
-1594 -1593 0
1594 1592 1593 0
-1595 -1591 0
-1595 1594 0
1595 1591 -1594 0
-1598 -1592 0
-1598 -1595 0
1598 1592 1595 0
-1600 -125 0
-1600 -126 0
1600 125 126 0
-1601 -1599 0
-1601 -1600 0
1601 1599 1600 0
-1602 -1598 0
-1602 1601 0
1602 1598 -1601 0
-1605 -1599 0
-1605 -1602 0
1605 1599 1602 0
-1607 -126 0
-1607 -127 0
1607 126 127 0
-1608 -1606 0
-1608 -1607 0
1608 1606 1607 0
-1609 -1605 0
-1609 1608 0
1609 1605 -1608 0
-1612 -1606 0
-1612 -1609 0
1612 1606 1609 0
-1614 -127 0
-1614 -128 0
1614 127 128 0
-1615 -1613 0
-1615 -1614 0
1615 1613 1614 0
-1616 -1612 0
-1616 1615 0
1616 1612 -1615 0
-1619 -1613 0
-1619 -1616 0
1619 1613 1616 0
-1621 -128 0
-1621 -129 0
1621 128 129 0
-1622 -1620 0
-1622 -1621 0
1622 1620 1621 0
-1623 -1619 0
-1623 1622 0
1623 1619 -1622 0
-1626 -1620 0
-1626 -1623 0
1626 1620 1623 0
-1628 -129 0
-1628 -130 0
1628 129 130 0
-1629 -1627 0
-1629 -1628 0
1629 1627 1628 0
-1630 -1626 0
-1630 1629 0
1630 1626 -1629 0
-1633 -1627 0
-1633 -1630 0
1633 1627 1630 0
-1635 -130 0
-1635 -131 0
1635 130 131 0
-1636 -1634 0
-1636 -1635 0
1636 1634 1635 0
-1637 -1633 0
-1637 1636 0
1637 1633 -1636 0
-1640 -1634 0
-1640 -1637 0
1640 1634 1637 0
-1642 -131 0
-1642 -132 0
1642 131 132 0
-1643 -1641 0
-1643 -1642 0
1643 1641 1642 0
-1644 -1640 0
-1644 1643 0
1644 1640 -1643 0
-1647 -1641 0
-1647 -1644 0
1647 1641 1644 0
-1649 -132 0
-1649 -133 0
1649 132 133 0
-1650 -1648 0
-1650 -1649 0
1650 1648 1649 0
-1651 -1647 0
-1651 1650 0
1651 1647 -1650 0
-1654 -1648 0
-1654 -1651 0
1654 1648 1651 0
-1656 -133 0
-1656 -134 0
1656 133 134 0
-1657 -1655 0
-1657 -1656 0
1657 1655 1656 0
-1658 -1654 0
-1658 1657 0
1658 1654 -1657 0
-1661 -1655 0
-1661 -1658 0
1661 1655 1658 0
-1663 -134 0
-1663 -135 0
1663 134 135 0
-1664 -1662 0
-1664 -1663 0
1664 1662 1663 0
-1665 -1661 0
-1665 1664 0
1665 1661 -1664 0
-1668 -1662 0
-1668 -1665 0
1668 1662 1665 0
-1670 -135 0
-1670 -136 0
1670 135 136 0
-1671 -1669 0
-1671 -1670 0
1671 1669 1670 0
-1672 -1668 0
-1672 1671 0
1672 1668 -1671 0
-1675 -1669 0
-1675 -1672 0
1675 1669 1672 0
-1677 -136 0
-1677 -137 0
1677 136 137 0
-1678 -1676 0
-1678 -1677 0
1678 1676 1677 0
-1679 -1675 0
-1679 1678 0
1679 1675 -1678 0
-1682 -1676 0
-1682 -1679 0
1682 1676 1679 0
-1683 137 0
-1683 138 0
1683 -137 -138 0
-1684 -137 0
-1684 -138 0
1684 137 138 0
-1685 -1683 0
-1685 -1684 0
1685 1683 1684 0
-1686 -1682 0
-1686 1685 0
1686 1682 -1685 0
-1687 1682 0
-1687 -1685 0
1687 -1682 1685 0
-1688 -1686 0
-1688 -1687 0
1688 1686 1687 0
-1680 1675 0
-1680 -1678 0
1680 -1675 1678 0
-1681 -1679 0
-1681 -1680 0
1681 1679 1680 0
-1673 1668 0
-1673 -1671 0
1673 -1668 1671 0
-1674 -1672 0
-1674 -1673 0
1674 1672 1673 0
-1666 1661 0
-1666 -1664 0
1666 -1661 1664 0
-1667 -1665 0
-1667 -1666 0
1667 1665 1666 0
-1659 1654 0
-1659 -1657 0
1659 -1654 1657 0
-1660 -1658 0
-1660 -1659 0
1660 1658 1659 0
-1652 1647 0
-1652 -1650 0
1652 -1647 1650 0
-1653 -1651 0
-1653 -1652 0
1653 1651 1652 0
-1645 1640 0
-1645 -1643 0
1645 -1640 1643 0
-1646 -1644 0
-1646 -1645 0
1646 1644 1645 0
-1638 1633 0
-1638 -1636 0
1638 -1633 1636 0
-1639 -1637 0
-1639 -1638 0
1639 1637 1638 0
-1631 1626 0
-1631 -1629 0
1631 -1626 1629 0
-1632 -1630 0
-1632 -1631 0
1632 1630 1631 0
-1624 1619 0
-1624 -1622 0
1624 -1619 1622 0
-1625 -1623 0
-1625 -1624 0
1625 1623 1624 0
-1617 1612 0
-1617 -1615 0
1617 -1612 1615 0
-1618 -1616 0
-1618 -1617 0
1618 1616 1617 0
-1610 1605 0
-1610 -1608 0
1610 -1605 1608 0
-1611 -1609 0
-1611 -1610 0
1611 1609 1610 0
-1603 1598 0
-1603 -1601 0
1603 -1598 1601 0
-1604 -1602 0
-1604 -1603 0
1604 1602 1603 0
-1596 1591 0
-1596 -1594 0
1596 -1591 1594 0
-1597 -1595 0
-1597 -1596 0
1597 1595 1596 0
-1589 1584 0
-1589 -1587 0
1589 -1584 1587 0
-1590 -1588 0
-1590 -1589 0
1590 1588 1589 0
-1582 1577 0
-1582 -1580 0
1582 -1577 1580 0
-1583 -1581 0
-1583 -1582 0
1583 1581 1582 0
-1575 1570 0
-1575 -1573 0
1575 -1570 1573 0
-1576 -1574 0
-1576 -1575 0
1576 1574 1575 0
-1568 1563 0
-1568 -1566 0
1568 -1563 1566 0
-1569 -1567 0
-1569 -1568 0
1569 1567 1568 0
-1561 1556 0
-1561 -1559 0
1561 -1556 1559 0
-1562 -1560 0
-1562 -1561 0
1562 1560 1561 0
-1554 1549 0
-1554 -1552 0
1554 -1549 1552 0
-1555 -1553 0
-1555 -1554 0
1555 1553 1554 0
-1547 1542 0
-1547 -1545 0
1547 -1542 1545 0
-1548 -1546 0
-1548 -1547 0
1548 1546 1547 0
-1540 1535 0
-1540 -1538 0
1540 -1535 1538 0
-1541 -1539 0
-1541 -1540 0
1541 1539 1540 0
-1533 1528 0
-1533 -1531 0
1533 -1528 1531 0
-1534 -1532 0
-1534 -1533 0
1534 1532 1533 0
-1526 1521 0
-1526 -1524 0
1526 -1521 1524 0
-1527 -1525 0
-1527 -1526 0
1527 1525 1526 0
-1519 1514 0
-1519 -1517 0
1519 -1514 1517 0
-1520 -1518 0
-1520 -1519 0
1520 1518 1519 0
-1512 1507 0
-1512 -1510 0
1512 -1507 1510 0
-1513 -1511 0
-1513 -1512 0
1513 1511 1512 0
-1505 1500 0
-1505 -1503 0
1505 -1500 1503 0
-1506 -1504 0
-1506 -1505 0
1506 1504 1505 0
-1498 1493 0
-1498 -1496 0
1498 -1493 1496 0
-1499 -1497 0
-1499 -1498 0
1499 1497 1498 0
-1491 1486 0
-1491 -1489 0
1491 -1486 1489 0
-1492 -1490 0
-1492 -1491 0
1492 1490 1491 0
-1484 1479 0
-1484 -1482 0
1484 -1479 1482 0
-1485 -1483 0
-1485 -1484 0
1485 1483 1484 0
-1477 1472 0
-1477 -1475 0
1477 -1472 1475 0
-1478 -1476 0
-1478 -1477 0
1478 1476 1477 0
-1470 1465 0
-1470 -1468 0
1470 -1465 1468 0
-1471 -1469 0
-1471 -1470 0
1471 1469 1470 0
-1463 1458 0
-1463 -1461 0
1463 -1458 1461 0
-1464 -1462 0
-1464 -1463 0
1464 1462 1463 0
-1456 1451 0
-1456 -1454 0
1456 -1451 1454 0
-1457 -1455 0
-1457 -1456 0
1457 1455 1456 0
-1449 1444 0
-1449 -1447 0
1449 -1444 1447 0
-1450 -1448 0
-1450 -1449 0
1450 1448 1449 0
-1442 1437 0
-1442 -1440 0
1442 -1437 1440 0
-1443 -1441 0
-1443 -1442 0
1443 1441 1442 0
-1435 1430 0
-1435 -1433 0
1435 -1430 1433 0
-1436 -1434 0
-1436 -1435 0
1436 1434 1435 0
-1428 1423 0
-1428 -1426 0
1428 -1423 1426 0
-1429 -1427 0
-1429 -1428 0
1429 1427 1428 0
-1421 1416 0
-1421 -1419 0
1421 -1416 1419 0
-1422 -1420 0
-1422 -1421 0
1422 1420 1421 0
-1414 1409 0
-1414 -1412 0
1414 -1409 1412 0
-1415 -1413 0
-1415 -1414 0
1415 1413 1414 0
-1407 1402 0
-1407 -1405 0
1407 -1402 1405 0
-1408 -1406 0
-1408 -1407 0
1408 1406 1407 0
-1400 1395 0
-1400 -1398 0
1400 -1395 1398 0
-1401 -1399 0
-1401 -1400 0
1401 1399 1400 0
-1393 1388 0
-1393 -1391 0
1393 -1388 1391 0
-1394 -1392 0
-1394 -1393 0
1394 1392 1393 0
-1386 1381 0
-1386 -1384 0
1386 -1381 1384 0
-1387 -1385 0
-1387 -1386 0
1387 1385 1386 0
-1379 1374 0
-1379 -1377 0
1379 -1374 1377 0
-1380 -1378 0
-1380 -1379 0
1380 1378 1379 0
-1372 1367 0
-1372 -1370 0
1372 -1367 1370 0
-1373 -1371 0
-1373 -1372 0
1373 1371 1372 0
-1365 1360 0
-1365 -1363 0
1365 -1360 1363 0
-1366 -1364 0
-1366 -1365 0
1366 1364 1365 0
-1358 1353 0
-1358 -1356 0
1358 -1353 1356 0
-1359 -1357 0
-1359 -1358 0
1359 1357 1358 0
-1351 1346 0
-1351 -1349 0
1351 -1346 1349 0
-1352 -1350 0
-1352 -1351 0
1352 1350 1351 0
-1344 1339 0
-1344 -1342 0
1344 -1339 1342 0
-1345 -1343 0
-1345 -1344 0
1345 1343 1344 0
-1337 1332 0
-1337 -1335 0
1337 -1332 1335 0
-1338 -1336 0
-1338 -1337 0
1338 1336 1337 0
-1330 1325 0
-1330 -1328 0
1330 -1325 1328 0
-1331 -1329 0
-1331 -1330 0
1331 1329 1330 0
-1323 1318 0
-1323 -1321 0
1323 -1318 1321 0
-1324 -1322 0
-1324 -1323 0
1324 1322 1323 0
-1316 1311 0
-1316 -1314 0
1316 -1311 1314 0
-1317 -1315 0
-1317 -1316 0
1317 1315 1316 0
-1309 1304 0
-1309 -1307 0
1309 -1304 1307 0
-1310 -1308 0
-1310 -1309 0
1310 1308 1309 0
-1302 1297 0
-1302 -1300 0
1302 -1297 1300 0
-1303 -1301 0
-1303 -1302 0
1303 1301 1302 0
-1295 1290 0
-1295 -1293 0
1295 -1290 1293 0
-1296 -1294 0
-1296 -1295 0
1296 1294 1295 0
-1288 1283 0
-1288 -1286 0
1288 -1283 1286 0
-1289 -1287 0
-1289 -1288 0
1289 1287 1288 0
-1281 1276 0
-1281 -1279 0
1281 -1276 1279 0
-1282 -1280 0
-1282 -1281 0
1282 1280 1281 0
-1274 1269 0
-1274 -1272 0
1274 -1269 1272 0
-1275 -1273 0
-1275 -1274 0
1275 1273 1274 0
-1267 1262 0
-1267 -1265 0
1267 -1262 1265 0
-1268 -1266 0
-1268 -1267 0
1268 1266 1267 0
-1260 -1253 0
-1260 -1258 0
1260 1253 1258 0
-1261 -1259 0
-1261 -1260 0
1261 1259 1260 0
-1254 -75 0
-1254 -76 0
1254 75 76 0
-1255 -1253 0
-1255 -1254 0
1255 1253 1254 0
-1690 75 0
-1690 1255 0
1690 -75 -1255 0
-1693 1261 0
-1693 1690 0
1693 -1261 -1690 0
-1696 1268 0
-1696 1693 0
1696 -1268 -1693 0
-1699 1275 0
-1699 1696 0
1699 -1275 -1696 0
-1702 1282 0
-1702 1699 0
1702 -1282 -1699 0
-1705 1289 0
-1705 1702 0
1705 -1289 -1702 0
-1708 1296 0
-1708 1705 0
1708 -1296 -1705 0
-1711 1303 0
-1711 1708 0
1711 -1303 -1708 0
-1714 1310 0
-1714 1711 0
1714 -1310 -1711 0
-1717 1317 0
-1717 1714 0
1717 -1317 -1714 0
-1720 1324 0
-1720 1717 0
1720 -1324 -1717 0
-1723 1331 0
-1723 1720 0
1723 -1331 -1720 0
-1726 1338 0
-1726 1723 0
1726 -1338 -1723 0
-1729 1345 0
-1729 1726 0
1729 -1345 -1726 0
-1732 1352 0
-1732 1729 0
1732 -1352 -1729 0
-1735 1359 0
-1735 1732 0
1735 -1359 -1732 0
-1738 1366 0
-1738 1735 0
1738 -1366 -1735 0
-1741 1373 0
-1741 1738 0
1741 -1373 -1738 0
-1744 1380 0
-1744 1741 0
1744 -1380 -1741 0
-1747 1387 0
-1747 1744 0
1747 -1387 -1744 0
-1750 1394 0
-1750 1747 0
1750 -1394 -1747 0
-1753 1401 0
-1753 1750 0
1753 -1401 -1750 0
-1756 1408 0
-1756 1753 0
1756 -1408 -1753 0
-1759 1415 0
-1759 1756 0
1759 -1415 -1756 0
-1762 1422 0
-1762 1759 0
1762 -1422 -1759 0
-1765 1429 0
-1765 1762 0
1765 -1429 -1762 0
-1768 1436 0
-1768 1765 0
1768 -1436 -1765 0
-1771 1443 0
-1771 1768 0
1771 -1443 -1768 0
-1774 1450 0
-1774 1771 0
1774 -1450 -1771 0
-1777 1457 0
-1777 1774 0
1777 -1457 -1774 0
-1780 1464 0
-1780 1777 0
1780 -1464 -1777 0
-1783 1471 0
-1783 1780 0
1783 -1471 -1780 0
-1786 1478 0
-1786 1783 0
1786 -1478 -1783 0
-1789 1485 0
-1789 1786 0
1789 -1485 -1786 0
-1792 1492 0
-1792 1789 0
1792 -1492 -1789 0
-1795 1499 0
-1795 1792 0
1795 -1499 -1792 0
-1798 1506 0
-1798 1795 0
1798 -1506 -1795 0
-1801 1513 0
-1801 1798 0
1801 -1513 -1798 0
-1804 1520 0
-1804 1801 0
1804 -1520 -1801 0
-1807 1527 0
-1807 1804 0
1807 -1527 -1804 0
-1810 1534 0
-1810 1807 0
1810 -1534 -1807 0
-1813 1541 0
-1813 1810 0
1813 -1541 -1810 0
-1816 1548 0
-1816 1813 0
1816 -1548 -1813 0
-1819 1555 0
-1819 1816 0
1819 -1555 -1816 0
-1822 1562 0
-1822 1819 0
1822 -1562 -1819 0
-1825 1569 0
-1825 1822 0
1825 -1569 -1822 0
-1828 1576 0
-1828 1825 0
1828 -1576 -1825 0
-1831 1583 0
-1831 1828 0
1831 -1583 -1828 0
-1834 1590 0
-1834 1831 0
1834 -1590 -1831 0
-1837 1597 0
-1837 1834 0
1837 -1597 -1834 0
-1840 1604 0
-1840 1837 0
1840 -1604 -1837 0
-1843 1611 0
-1843 1840 0
1843 -1611 -1840 0
-1846 1618 0
-1846 1843 0
1846 -1618 -1843 0
-1849 1625 0
-1849 1846 0
1849 -1625 -1846 0
-1852 1632 0
-1852 1849 0
1852 -1632 -1849 0
-1855 1639 0
-1855 1852 0
1855 -1639 -1852 0
-1858 1646 0
-1858 1855 0
1858 -1646 -1855 0
-1861 1653 0
-1861 1858 0
1861 -1653 -1858 0
-1864 1660 0
-1864 1861 0
1864 -1660 -1861 0
-1867 1667 0
-1867 1864 0
1867 -1667 -1864 0
-1870 1674 0
-1870 1867 0
1870 -1674 -1867 0
-1873 1681 0
-1873 1870 0
1873 -1681 -1870 0
-1876 1688 0
-1876 1873 0
1876 -1688 -1873 0
-1877 -1688 0
-1877 -1873 0
1877 1688 1873 0
-1878 -1876 0
-1878 -1877 0
1878 1876 1877 0
-2065 1251 0
-2065 -1878 0
2065 -1251 1878 0
-2066 -1251 0
-2066 1878 0
2066 1251 -1878 0
-2067 -2065 0
-2067 -2066 0
2067 2065 2066 0
1250 -16496 0
-1250 16496 0
-1874 -1681 0
-1874 -1870 0
1874 1681 1870 0
-1875 -1873 0
-1875 -1874 0
1875 1873 1874 0
-2062 1250 0
-2062 -1875 0
2062 -1250 1875 0
-2063 -1250 0
-2063 1875 0
2063 1250 -1875 0
-2064 -2062 0
-2064 -2063 0
2064 2062 2063 0
1249 -16495 0
-1249 16495 0
-1871 -1674 0
-1871 -1867 0
1871 1674 1867 0
-1872 -1870 0
-1872 -1871 0
1872 1870 1871 0
-2059 1249 0
-2059 -1872 0
2059 -1249 1872 0
-2060 -1249 0
-2060 1872 0
2060 1249 -1872 0
-2061 -2059 0
-2061 -2060 0
2061 2059 2060 0
1248 -16494 0
-1248 16494 0
-1868 -1667 0
-1868 -1864 0
1868 1667 1864 0
-1869 -1867 0
-1869 -1868 0
1869 1867 1868 0
-2056 1248 0
-2056 -1869 0
2056 -1248 1869 0
-2057 -1248 0
-2057 1869 0
2057 1248 -1869 0
-2058 -2056 0
-2058 -2057 0
2058 2056 2057 0
1247 -16493 0
-1247 16493 0
-1865 -1660 0
-1865 -1861 0
1865 1660 1861 0
-1866 -1864 0
-1866 -1865 0
1866 1864 1865 0
-2053 1247 0
-2053 -1866 0
2053 -1247 1866 0
-2054 -1247 0
-2054 1866 0
2054 1247 -1866 0
-2055 -2053 0
-2055 -2054 0
2055 2053 2054 0
1246 -16492 0
-1246 16492 0
-1862 -1653 0
-1862 -1858 0
1862 1653 1858 0
-1863 -1861 0
-1863 -1862 0
1863 1861 1862 0
-2050 1246 0
-2050 -1863 0
2050 -1246 1863 0
-2051 -1246 0
-2051 1863 0
2051 1246 -1863 0
-2052 -2050 0
-2052 -2051 0
2052 2050 2051 0
1245 -16491 0
-1245 16491 0
-1859 -1646 0
-1859 -1855 0
1859 1646 1855 0
-1860 -1858 0
-1860 -1859 0
1860 1858 1859 0
-2047 1245 0
-2047 -1860 0
2047 -1245 1860 0
-2048 -1245 0
-2048 1860 0
2048 1245 -1860 0
-2049 -2047 0
-2049 -2048 0
2049 2047 2048 0
1244 -16490 0
-1244 16490 0
-1856 -1639 0
-1856 -1852 0
1856 1639 1852 0
-1857 -1855 0
-1857 -1856 0
1857 1855 1856 0
-2044 1244 0
-2044 -1857 0
2044 -1244 1857 0
-2045 -1244 0
-2045 1857 0
2045 1244 -1857 0
-2046 -2044 0
-2046 -2045 0
2046 2044 2045 0
1243 -16489 0
-1243 16489 0
-1853 -1632 0
-1853 -1849 0
1853 1632 1849 0
-1854 -1852 0
-1854 -1853 0
1854 1852 1853 0
-2041 1243 0
-2041 -1854 0
2041 -1243 1854 0
-2042 -1243 0
-2042 1854 0
2042 1243 -1854 0
-2043 -2041 0
-2043 -2042 0
2043 2041 2042 0
1242 -16488 0
-1242 16488 0
-1850 -1625 0
-1850 -1846 0
1850 1625 1846 0
-1851 -1849 0
-1851 -1850 0
1851 1849 1850 0
-2038 1242 0
-2038 -1851 0
2038 -1242 1851 0
-2039 -1242 0
-2039 1851 0
2039 1242 -1851 0
-2040 -2038 0
-2040 -2039 0
2040 2038 2039 0
1241 -16487 0
-1241 16487 0
-1847 -1618 0
-1847 -1843 0
1847 1618 1843 0
-1848 -1846 0
-1848 -1847 0
1848 1846 1847 0
-2035 1241 0
-2035 -1848 0
2035 -1241 1848 0
-2036 -1241 0
-2036 1848 0
2036 1241 -1848 0
-2037 -2035 0
-2037 -2036 0
2037 2035 2036 0
1240 -16486 0
-1240 16486 0
-1844 -1611 0
-1844 -1840 0
1844 1611 1840 0
-1845 -1843 0
-1845 -1844 0
1845 1843 1844 0
-2032 1240 0
-2032 -1845 0
2032 -1240 1845 0
-2033 -1240 0
-2033 1845 0
2033 1240 -1845 0
-2034 -2032 0
-2034 -2033 0
2034 2032 2033 0
1239 -16485 0
-1239 16485 0
-1841 -1604 0
-1841 -1837 0
1841 1604 1837 0
-1842 -1840 0
-1842 -1841 0
1842 1840 1841 0
-2029 1239 0
-2029 -1842 0
2029 -1239 1842 0
-2030 -1239 0
-2030 1842 0
2030 1239 -1842 0
-2031 -2029 0
-2031 -2030 0
2031 2029 2030 0
1238 -16484 0
-1238 16484 0
-1838 -1597 0
-1838 -1834 0
1838 1597 1834 0
-1839 -1837 0
-1839 -1838 0
1839 1837 1838 0
-2026 1238 0
-2026 -1839 0
2026 -1238 1839 0
-2027 -1238 0
-2027 1839 0
2027 1238 -1839 0
-2028 -2026 0
-2028 -2027 0
2028 2026 2027 0
1237 -16483 0
-1237 16483 0
-1835 -1590 0
-1835 -1831 0
1835 1590 1831 0
-1836 -1834 0
-1836 -1835 0
1836 1834 1835 0
-2023 1237 0
-2023 -1836 0
2023 -1237 1836 0
-2024 -1237 0
-2024 1836 0
2024 1237 -1836 0
-2025 -2023 0
-2025 -2024 0
2025 2023 2024 0
1236 -16482 0
-1236 16482 0
-1832 -1583 0
-1832 -1828 0
1832 1583 1828 0
-1833 -1831 0
-1833 -1832 0
1833 1831 1832 0
-2020 1236 0
-2020 -1833 0
2020 -1236 1833 0
-2021 -1236 0
-2021 1833 0
2021 1236 -1833 0
-2022 -2020 0
-2022 -2021 0
2022 2020 2021 0
1235 -16481 0
-1235 16481 0
-1829 -1576 0
-1829 -1825 0
1829 1576 1825 0
-1830 -1828 0
-1830 -1829 0
1830 1828 1829 0
-2017 1235 0
-2017 -1830 0
2017 -1235 1830 0
-2018 -1235 0
-2018 1830 0
2018 1235 -1830 0
-2019 -2017 0
-2019 -2018 0
2019 2017 2018 0
1234 -16480 0
-1234 16480 0
-1826 -1569 0
-1826 -1822 0
1826 1569 1822 0
-1827 -1825 0
-1827 -1826 0
1827 1825 1826 0
-2014 1234 0
-2014 -1827 0
2014 -1234 1827 0
-2015 -1234 0
-2015 1827 0
2015 1234 -1827 0
-2016 -2014 0
-2016 -2015 0
2016 2014 2015 0
1233 -16479 0
-1233 16479 0
-1823 -1562 0
-1823 -1819 0
1823 1562 1819 0
-1824 -1822 0
-1824 -1823 0
1824 1822 1823 0
-2011 1233 0
-2011 -1824 0
2011 -1233 1824 0
-2012 -1233 0
-2012 1824 0
2012 1233 -1824 0
-2013 -2011 0
-2013 -2012 0
2013 2011 2012 0
1232 -16478 0
-1232 16478 0
-1820 -1555 0
-1820 -1816 0
1820 1555 1816 0
-1821 -1819 0
-1821 -1820 0
1821 1819 1820 0
-2008 1232 0
-2008 -1821 0
2008 -1232 1821 0
-2009 -1232 0
-2009 1821 0
2009 1232 -1821 0
-2010 -2008 0
-2010 -2009 0
2010 2008 2009 0
1231 -16477 0
-1231 16477 0
-1817 -1548 0
-1817 -1813 0
1817 1548 1813 0
-1818 -1816 0
-1818 -1817 0
1818 1816 1817 0
-2005 1231 0
-2005 -1818 0
2005 -1231 1818 0
-2006 -1231 0
-2006 1818 0
2006 1231 -1818 0
-2007 -2005 0
-2007 -2006 0
2007 2005 2006 0
1230 -16476 0
-1230 16476 0
-1814 -1541 0
-1814 -1810 0
1814 1541 1810 0
-1815 -1813 0
-1815 -1814 0
1815 1813 1814 0
-2002 1230 0
-2002 -1815 0
2002 -1230 1815 0
-2003 -1230 0
-2003 1815 0
2003 1230 -1815 0
-2004 -2002 0
-2004 -2003 0
2004 2002 2003 0
1229 -16475 0
-1229 16475 0
-1811 -1534 0
-1811 -1807 0
1811 1534 1807 0
-1812 -1810 0
-1812 -1811 0
1812 1810 1811 0
-1999 1229 0
-1999 -1812 0
1999 -1229 1812 0
-2000 -1229 0
-2000 1812 0
2000 1229 -1812 0
-2001 -1999 0
-2001 -2000 0
2001 1999 2000 0
1228 -16474 0
-1228 16474 0
-1808 -1527 0
-1808 -1804 0
1808 1527 1804 0
-1809 -1807 0
-1809 -1808 0
1809 1807 1808 0
-1996 1228 0
-1996 -1809 0
1996 -1228 1809 0
-1997 -1228 0
-1997 1809 0
1997 1228 -1809 0
-1998 -1996 0
-1998 -1997 0
1998 1996 1997 0
1227 -16473 0
-1227 16473 0
-1805 -1520 0
-1805 -1801 0
1805 1520 1801 0
-1806 -1804 0
-1806 -1805 0
1806 1804 1805 0
-1993 1227 0
-1993 -1806 0
1993 -1227 1806 0
-1994 -1227 0
-1994 1806 0
1994 1227 -1806 0
-1995 -1993 0
-1995 -1994 0
1995 1993 1994 0
1226 -16472 0
-1226 16472 0
-1802 -1513 0
-1802 -1798 0
1802 1513 1798 0
-1803 -1801 0
-1803 -1802 0
1803 1801 1802 0
-1990 1226 0
-1990 -1803 0
1990 -1226 1803 0
-1991 -1226 0
-1991 1803 0
1991 1226 -1803 0
-1992 -1990 0
-1992 -1991 0
1992 1990 1991 0
1225 -16471 0
-1225 16471 0
-1799 -1506 0
-1799 -1795 0
1799 1506 1795 0
-1800 -1798 0
-1800 -1799 0
1800 1798 1799 0
-1987 1225 0
-1987 -1800 0
1987 -1225 1800 0
-1988 -1225 0
-1988 1800 0
1988 1225 -1800 0
-1989 -1987 0
-1989 -1988 0
1989 1987 1988 0
1224 -16470 0
-1224 16470 0
-1796 -1499 0
-1796 -1792 0
1796 1499 1792 0
-1797 -1795 0
-1797 -1796 0
1797 1795 1796 0
-1984 1224 0
-1984 -1797 0
1984 -1224 1797 0
-1985 -1224 0
-1985 1797 0
1985 1224 -1797 0
-1986 -1984 0
-1986 -1985 0
1986 1984 1985 0
1223 -16469 0
-1223 16469 0
-1793 -1492 0
-1793 -1789 0
1793 1492 1789 0
-1794 -1792 0
-1794 -1793 0
1794 1792 1793 0
-1981 1223 0
-1981 -1794 0
1981 -1223 1794 0
-1982 -1223 0
-1982 1794 0
1982 1223 -1794 0
-1983 -1981 0
-1983 -1982 0
1983 1981 1982 0
1222 -16468 0
-1222 16468 0
-1790 -1485 0
-1790 -1786 0
1790 1485 1786 0
-1791 -1789 0
-1791 -1790 0
1791 1789 1790 0
-1978 1222 0
-1978 -1791 0
1978 -1222 1791 0
-1979 -1222 0
-1979 1791 0
1979 1222 -1791 0
-1980 -1978 0
-1980 -1979 0
1980 1978 1979 0
1221 -16467 0
-1221 16467 0
-1787 -1478 0
-1787 -1783 0
1787 1478 1783 0
-1788 -1786 0
-1788 -1787 0
1788 1786 1787 0
-1975 1221 0
-1975 -1788 0
1975 -1221 1788 0
-1976 -1221 0
-1976 1788 0
1976 1221 -1788 0
-1977 -1975 0
-1977 -1976 0
1977 1975 1976 0
1220 -16466 0
-1220 16466 0
-1784 -1471 0
-1784 -1780 0
1784 1471 1780 0
-1785 -1783 0
-1785 -1784 0
1785 1783 1784 0
-1972 1220 0
-1972 -1785 0
1972 -1220 1785 0
-1973 -1220 0
-1973 1785 0
1973 1220 -1785 0
-1974 -1972 0
-1974 -1973 0
1974 1972 1973 0
1219 -16465 0
-1219 16465 0
-1781 -1464 0
-1781 -1777 0
1781 1464 1777 0
-1782 -1780 0
-1782 -1781 0
1782 1780 1781 0
-1969 1219 0
-1969 -1782 0
1969 -1219 1782 0
-1970 -1219 0
-1970 1782 0
1970 1219 -1782 0
-1971 -1969 0
-1971 -1970 0
1971 1969 1970 0
1218 -16464 0
-1218 16464 0
-1778 -1457 0
-1778 -1774 0
1778 1457 1774 0
-1779 -1777 0
-1779 -1778 0
1779 1777 1778 0
-1966 1218 0
-1966 -1779 0
1966 -1218 1779 0
-1967 -1218 0
-1967 1779 0
1967 1218 -1779 0
-1968 -1966 0
-1968 -1967 0
1968 1966 1967 0
1217 -16463 0
-1217 16463 0
-1775 -1450 0
-1775 -1771 0
1775 1450 1771 0
-1776 -1774 0
-1776 -1775 0
1776 1774 1775 0
-1963 1217 0
-1963 -1776 0
1963 -1217 1776 0
-1964 -1217 0
-1964 1776 0
1964 1217 -1776 0
-1965 -1963 0
-1965 -1964 0
1965 1963 1964 0
1216 -16462 0
-1216 16462 0
-1772 -1443 0
-1772 -1768 0
1772 1443 1768 0
-1773 -1771 0
-1773 -1772 0
1773 1771 1772 0
-1960 1216 0
-1960 -1773 0
1960 -1216 1773 0
-1961 -1216 0
-1961 1773 0
1961 1216 -1773 0
-1962 -1960 0
-1962 -1961 0
1962 1960 1961 0
1215 -16461 0
-1215 16461 0
-1769 -1436 0
-1769 -1765 0
1769 1436 1765 0
-1770 -1768 0
-1770 -1769 0
1770 1768 1769 0
-1957 1215 0
-1957 -1770 0
1957 -1215 1770 0
-1958 -1215 0
-1958 1770 0
1958 1215 -1770 0
-1959 -1957 0
-1959 -1958 0
1959 1957 1958 0
1214 -16460 0
-1214 16460 0
-1766 -1429 0
-1766 -1762 0
1766 1429 1762 0
-1767 -1765 0
-1767 -1766 0
1767 1765 1766 0
-1954 1214 0
-1954 -1767 0
1954 -1214 1767 0
-1955 -1214 0
-1955 1767 0
1955 1214 -1767 0
-1956 -1954 0
-1956 -1955 0
1956 1954 1955 0
1213 -16459 0
-1213 16459 0
-1763 -1422 0
-1763 -1759 0
1763 1422 1759 0
-1764 -1762 0
-1764 -1763 0
1764 1762 1763 0
-1951 1213 0
-1951 -1764 0
1951 -1213 1764 0
-1952 -1213 0
-1952 1764 0
1952 1213 -1764 0
-1953 -1951 0
-1953 -1952 0
1953 1951 1952 0
1212 -16458 0
-1212 16458 0
-1760 -1415 0
-1760 -1756 0
1760 1415 1756 0
-1761 -1759 0
-1761 -1760 0
1761 1759 1760 0
-1948 1212 0
-1948 -1761 0
1948 -1212 1761 0
-1949 -1212 0
-1949 1761 0
1949 1212 -1761 0
-1950 -1948 0
-1950 -1949 0
1950 1948 1949 0
1211 -16457 0
-1211 16457 0
-1757 -1408 0
-1757 -1753 0
1757 1408 1753 0
-1758 -1756 0
-1758 -1757 0
1758 1756 1757 0
-1945 1211 0
-1945 -1758 0
1945 -1211 1758 0
-1946 -1211 0
-1946 1758 0
1946 1211 -1758 0
-1947 -1945 0
-1947 -1946 0
1947 1945 1946 0
1210 -16456 0
-1210 16456 0
-1754 -1401 0
-1754 -1750 0
1754 1401 1750 0
-1755 -1753 0
-1755 -1754 0
1755 1753 1754 0
-1942 1210 0
-1942 -1755 0
1942 -1210 1755 0
-1943 -1210 0
-1943 1755 0
1943 1210 -1755 0
-1944 -1942 0
-1944 -1943 0
1944 1942 1943 0
1209 -16455 0
-1209 16455 0
-1751 -1394 0
-1751 -1747 0
1751 1394 1747 0
-1752 -1750 0
-1752 -1751 0
1752 1750 1751 0
-1939 1209 0
-1939 -1752 0
1939 -1209 1752 0
-1940 -1209 0
-1940 1752 0
1940 1209 -1752 0
-1941 -1939 0
-1941 -1940 0
1941 1939 1940 0
1208 -16454 0
-1208 16454 0
-1748 -1387 0
-1748 -1744 0
1748 1387 1744 0
-1749 -1747 0
-1749 -1748 0
1749 1747 1748 0
-1936 1208 0
-1936 -1749 0
1936 -1208 1749 0
-1937 -1208 0
-1937 1749 0
1937 1208 -1749 0
-1938 -1936 0
-1938 -1937 0
1938 1936 1937 0
1207 -16453 0
-1207 16453 0
-1745 -1380 0
-1745 -1741 0
1745 1380 1741 0
-1746 -1744 0
-1746 -1745 0
1746 1744 1745 0
-1933 1207 0
-1933 -1746 0
1933 -1207 1746 0
-1934 -1207 0
-1934 1746 0
1934 1207 -1746 0
-1935 -1933 0
-1935 -1934 0
1935 1933 1934 0
1206 -16452 0
-1206 16452 0
-1742 -1373 0
-1742 -1738 0
1742 1373 1738 0
-1743 -1741 0
-1743 -1742 0
1743 1741 1742 0
-1930 1206 0
-1930 -1743 0
1930 -1206 1743 0
-1931 -1206 0
-1931 1743 0
1931 1206 -1743 0
-1932 -1930 0
-1932 -1931 0
1932 1930 1931 0
1205 -16451 0
-1205 16451 0
-1739 -1366 0
-1739 -1735 0
1739 1366 1735 0
-1740 -1738 0
-1740 -1739 0
1740 1738 1739 0
-1927 1205 0
-1927 -1740 0
1927 -1205 1740 0
-1928 -1205 0
-1928 1740 0
1928 1205 -1740 0
-1929 -1927 0
-1929 -1928 0
1929 1927 1928 0
1204 -16450 0
-1204 16450 0
-1736 -1359 0
-1736 -1732 0
1736 1359 1732 0
-1737 -1735 0
-1737 -1736 0
1737 1735 1736 0
-1924 1204 0
-1924 -1737 0
1924 -1204 1737 0
-1925 -1204 0
-1925 1737 0
1925 1204 -1737 0
-1926 -1924 0
-1926 -1925 0
1926 1924 1925 0
1203 -16449 0
-1203 16449 0
-1733 -1352 0
-1733 -1729 0
1733 1352 1729 0
-1734 -1732 0
-1734 -1733 0
1734 1732 1733 0
-1921 1203 0
-1921 -1734 0
1921 -1203 1734 0
-1922 -1203 0
-1922 1734 0
1922 1203 -1734 0
-1923 -1921 0
-1923 -1922 0
1923 1921 1922 0
1202 -16448 0
-1202 16448 0
-1730 -1345 0
-1730 -1726 0
1730 1345 1726 0
-1731 -1729 0
-1731 -1730 0
1731 1729 1730 0
-1918 1202 0
-1918 -1731 0
1918 -1202 1731 0
-1919 -1202 0
-1919 1731 0
1919 1202 -1731 0
-1920 -1918 0
-1920 -1919 0
1920 1918 1919 0
1201 -16447 0
-1201 16447 0
-1727 -1338 0
-1727 -1723 0
1727 1338 1723 0
-1728 -1726 0
-1728 -1727 0
1728 1726 1727 0
-1915 1201 0
-1915 -1728 0
1915 -1201 1728 0
-1916 -1201 0
-1916 1728 0
1916 1201 -1728 0
-1917 -1915 0
-1917 -1916 0
1917 1915 1916 0
1200 -16446 0
-1200 16446 0
-1724 -1331 0
-1724 -1720 0
1724 1331 1720 0
-1725 -1723 0
-1725 -1724 0
1725 1723 1724 0
-1912 1200 0
-1912 -1725 0
1912 -1200 1725 0
-1913 -1200 0
-1913 1725 0
1913 1200 -1725 0
-1914 -1912 0
-1914 -1913 0
1914 1912 1913 0
1199 -16445 0
-1199 16445 0
-1721 -1324 0
-1721 -1717 0
1721 1324 1717 0
-1722 -1720 0
-1722 -1721 0
1722 1720 1721 0
-1909 1199 0
-1909 -1722 0
1909 -1199 1722 0
-1910 -1199 0
-1910 1722 0
1910 1199 -1722 0
-1911 -1909 0
-1911 -1910 0
1911 1909 1910 0
1198 -16444 0
-1198 16444 0
-1718 -1317 0
-1718 -1714 0
1718 1317 1714 0
-1719 -1717 0
-1719 -1718 0
1719 1717 1718 0
-1906 1198 0
-1906 -1719 0
1906 -1198 1719 0
-1907 -1198 0
-1907 1719 0
1907 1198 -1719 0
-1908 -1906 0
-1908 -1907 0
1908 1906 1907 0
1197 -16443 0
-1197 16443 0
-1715 -1310 0
-1715 -1711 0
1715 1310 1711 0
-1716 -1714 0
-1716 -1715 0
1716 1714 1715 0
-1903 1197 0
-1903 -1716 0
1903 -1197 1716 0
-1904 -1197 0
-1904 1716 0
1904 1197 -1716 0
-1905 -1903 0
-1905 -1904 0
1905 1903 1904 0
1196 -16442 0
-1196 16442 0
-1712 -1303 0
-1712 -1708 0
1712 1303 1708 0
-1713 -1711 0
-1713 -1712 0
1713 1711 1712 0
-1900 1196 0
-1900 -1713 0
1900 -1196 1713 0
-1901 -1196 0
-1901 1713 0
1901 1196 -1713 0
-1902 -1900 0
-1902 -1901 0
1902 1900 1901 0
1195 -16441 0
-1195 16441 0
-1709 -1296 0
-1709 -1705 0
1709 1296 1705 0
-1710 -1708 0
-1710 -1709 0
1710 1708 1709 0
-1897 1195 0
-1897 -1710 0
1897 -1195 1710 0
-1898 -1195 0
-1898 1710 0
1898 1195 -1710 0
-1899 -1897 0
-1899 -1898 0
1899 1897 1898 0
1194 -16440 0
-1194 16440 0
-1706 -1289 0
-1706 -1702 0
1706 1289 1702 0
-1707 -1705 0
-1707 -1706 0
1707 1705 1706 0
-1894 1194 0
-1894 -1707 0
1894 -1194 1707 0
-1895 -1194 0
-1895 1707 0
1895 1194 -1707 0
-1896 -1894 0
-1896 -1895 0
1896 1894 1895 0
1193 -16439 0
-1193 16439 0
-1703 -1282 0
-1703 -1699 0
1703 1282 1699 0
-1704 -1702 0
-1704 -1703 0
1704 1702 1703 0
-1891 1193 0
-1891 -1704 0
1891 -1193 1704 0
-1892 -1193 0
-1892 1704 0
1892 1193 -1704 0
-1893 -1891 0
-1893 -1892 0
1893 1891 1892 0
1192 -16438 0
-1192 16438 0
-1700 -1275 0
-1700 -1696 0
1700 1275 1696 0
-1701 -1699 0
-1701 -1700 0
1701 1699 1700 0
-1888 1192 0
-1888 -1701 0
1888 -1192 1701 0
-1889 -1192 0
-1889 1701 0
1889 1192 -1701 0
-1890 -1888 0
-1890 -1889 0
1890 1888 1889 0
1191 -16437 0
-1191 16437 0
-1697 -1268 0
-1697 -1693 0
1697 1268 1693 0
-1698 -1696 0
-1698 -1697 0
1698 1696 1697 0
-1885 1191 0
-1885 -1698 0
1885 -1191 1698 0
-1886 -1191 0
-1886 1698 0
1886 1191 -1698 0
-1887 -1885 0
-1887 -1886 0
1887 1885 1886 0
1189 -16435 0
-1189 16435 0
-1691 -75 0
-1691 -1255 0
1691 75 1255 0
-1692 -1690 0
-1692 -1691 0
1692 1690 1691 0
-1879 1189 0
-1879 -1692 0
1879 -1189 1692 0
-1880 -1189 0
-1880 1692 0
1880 1189 -1692 0
-1881 -1879 0
-1881 -1880 0
1881 1879 1880 0
1190 -16436 0
-1190 16436 0
-1694 -1261 0
-1694 -1690 0
1694 1261 1690 0
-1695 -1693 0
-1695 -1694 0
1695 1693 1694 0
-1882 1190 0
-1882 -1695 0
1882 -1190 1695 0
-1883 -1190 0
-1883 1695 0
1883 1190 -1695 0
-1884 -1882 0
-1884 -1883 0
1884 1882 1883 0
-2068 1881 0
-2068 1884 0
2068 -1881 -1884 0
-2069 1887 0
-2069 2068 0
2069 -1887 -2068 0
-2070 1890 0
-2070 2069 0
2070 -1890 -2069 0
-2071 1893 0
-2071 2070 0
2071 -1893 -2070 0
-2072 1896 0
-2072 2071 0
2072 -1896 -2071 0
-2073 1899 0
-2073 2072 0
2073 -1899 -2072 0
-2074 1902 0
-2074 2073 0
2074 -1902 -2073 0
-2075 1905 0
-2075 2074 0
2075 -1905 -2074 0
-2076 1908 0
-2076 2075 0
2076 -1908 -2075 0
-2077 1911 0
-2077 2076 0
2077 -1911 -2076 0
-2078 1914 0
-2078 2077 0
2078 -1914 -2077 0
-2079 1917 0
-2079 2078 0
2079 -1917 -2078 0
-2080 1920 0
-2080 2079 0
2080 -1920 -2079 0
-2081 1923 0
-2081 2080 0
2081 -1923 -2080 0
-2082 1926 0
-2082 2081 0
2082 -1926 -2081 0
-2083 1929 0
-2083 2082 0
2083 -1929 -2082 0
-2084 1932 0
-2084 2083 0
2084 -1932 -2083 0
-2085 1935 0
-2085 2084 0
2085 -1935 -2084 0
-2086 1938 0
-2086 2085 0
2086 -1938 -2085 0
-2087 1941 0
-2087 2086 0
2087 -1941 -2086 0
-2088 1944 0
-2088 2087 0
2088 -1944 -2087 0
-2089 1947 0
-2089 2088 0
2089 -1947 -2088 0
-2090 1950 0
-2090 2089 0
2090 -1950 -2089 0
-2091 1953 0
-2091 2090 0
2091 -1953 -2090 0
-2092 1956 0
-2092 2091 0
2092 -1956 -2091 0
-2093 1959 0
-2093 2092 0
2093 -1959 -2092 0
-2094 1962 0
-2094 2093 0
2094 -1962 -2093 0
-2095 1965 0
-2095 2094 0
2095 -1965 -2094 0
-2096 1968 0
-2096 2095 0
2096 -1968 -2095 0
-2097 1971 0
-2097 2096 0
2097 -1971 -2096 0
-2098 1974 0
-2098 2097 0
2098 -1974 -2097 0
-2099 1977 0
-2099 2098 0
2099 -1977 -2098 0
-2100 1980 0
-2100 2099 0
2100 -1980 -2099 0
-2101 1983 0
-2101 2100 0
2101 -1983 -2100 0
-2102 1986 0
-2102 2101 0
2102 -1986 -2101 0
-2103 1989 0
-2103 2102 0
2103 -1989 -2102 0
-2104 1992 0
-2104 2103 0
2104 -1992 -2103 0
-2105 1995 0
-2105 2104 0
2105 -1995 -2104 0
-2106 1998 0
-2106 2105 0
2106 -1998 -2105 0
-2107 2001 0
-2107 2106 0
2107 -2001 -2106 0
-2108 2004 0
-2108 2107 0
2108 -2004 -2107 0
-2109 2007 0
-2109 2108 0
2109 -2007 -2108 0
-2110 2010 0
-2110 2109 0
2110 -2010 -2109 0
-2111 2013 0
-2111 2110 0
2111 -2013 -2110 0
-2112 2016 0
-2112 2111 0
2112 -2016 -2111 0
-2113 2019 0
-2113 2112 0
2113 -2019 -2112 0
-2114 2022 0
-2114 2113 0
2114 -2022 -2113 0
-2115 2025 0
-2115 2114 0
2115 -2025 -2114 0
-2116 2028 0
-2116 2115 0
2116 -2028 -2115 0
-2117 2031 0
-2117 2116 0
2117 -2031 -2116 0
-2118 2034 0
-2118 2117 0
2118 -2034 -2117 0
-2119 2037 0
-2119 2118 0
2119 -2037 -2118 0
-2120 2040 0
-2120 2119 0
2120 -2040 -2119 0
-2121 2043 0
-2121 2120 0
2121 -2043 -2120 0
-2122 2046 0
-2122 2121 0
2122 -2046 -2121 0
-2123 2049 0
-2123 2122 0
2123 -2049 -2122 0
-2124 2052 0
-2124 2123 0
2124 -2052 -2123 0
-2125 2055 0
-2125 2124 0
2125 -2055 -2124 0
-2126 2058 0
-2126 2125 0
2126 -2058 -2125 0
-2127 2061 0
-2127 2126 0
2127 -2061 -2126 0
-2128 2064 0
-2128 2127 0
2128 -2064 -2127 0
-2129 2067 0
-2129 2128 0
2129 -2067 -2128 0
-2130 -1252 0
-2130 2129 0
2130 1252 -2129 0
-2131 746 0
-2131 -2130 0
2131 -746 2130 0
-2132 1188 0
-2132 -2131 0
2132 -1188 2131 0
-2319 -883 0
-2319 1251 0
2319 883 -1251 0
-2320 883 0
-2320 -1251 0
2320 -883 1251 0
-2321 -2319 0
-2321 -2320 0
2321 2319 2320 0
-2316 -882 0
-2316 1250 0
2316 882 -1250 0
-2317 882 0
-2317 -1250 0
2317 -882 1250 0
-2318 -2316 0
-2318 -2317 0
2318 2316 2317 0
-2313 -881 0
-2313 1249 0
2313 881 -1249 0
-2314 881 0
-2314 -1249 0
2314 -881 1249 0
-2315 -2313 0
-2315 -2314 0
2315 2313 2314 0
-2310 -880 0
-2310 1248 0
2310 880 -1248 0
-2311 880 0
-2311 -1248 0
2311 -880 1248 0
-2312 -2310 0
-2312 -2311 0
2312 2310 2311 0
-2307 -879 0
-2307 1247 0
2307 879 -1247 0
-2308 879 0
-2308 -1247 0
2308 -879 1247 0
-2309 -2307 0
-2309 -2308 0
2309 2307 2308 0
-2304 -878 0
-2304 1246 0
2304 878 -1246 0
-2305 878 0
-2305 -1246 0
2305 -878 1246 0
-2306 -2304 0
-2306 -2305 0
2306 2304 2305 0
-2301 -877 0
-2301 1245 0
2301 877 -1245 0
-2302 877 0
-2302 -1245 0
2302 -877 1245 0
-2303 -2301 0
-2303 -2302 0
2303 2301 2302 0
-2298 -876 0
-2298 1244 0
2298 876 -1244 0
-2299 876 0
-2299 -1244 0
2299 -876 1244 0
-2300 -2298 0
-2300 -2299 0
2300 2298 2299 0
-2295 -875 0
-2295 1243 0
2295 875 -1243 0
-2296 875 0
-2296 -1243 0
2296 -875 1243 0
-2297 -2295 0
-2297 -2296 0
2297 2295 2296 0
-2292 -874 0
-2292 1242 0
2292 874 -1242 0
-2293 874 0
-2293 -1242 0
2293 -874 1242 0
-2294 -2292 0
-2294 -2293 0
2294 2292 2293 0
-2289 -873 0
-2289 1241 0
2289 873 -1241 0
-2290 873 0
-2290 -1241 0
2290 -873 1241 0
-2291 -2289 0
-2291 -2290 0
2291 2289 2290 0
-2286 -872 0
-2286 1240 0
2286 872 -1240 0
-2287 872 0
-2287 -1240 0
2287 -872 1240 0
-2288 -2286 0
-2288 -2287 0
2288 2286 2287 0
-2283 -871 0
-2283 1239 0
2283 871 -1239 0
-2284 871 0
-2284 -1239 0
2284 -871 1239 0
-2285 -2283 0
-2285 -2284 0
2285 2283 2284 0
-2280 -870 0
-2280 1238 0
2280 870 -1238 0
-2281 870 0
-2281 -1238 0
2281 -870 1238 0
-2282 -2280 0
-2282 -2281 0
2282 2280 2281 0
-2277 -869 0
-2277 1237 0
2277 869 -1237 0
-2278 869 0
-2278 -1237 0
2278 -869 1237 0
-2279 -2277 0
-2279 -2278 0
2279 2277 2278 0
-2274 -868 0
-2274 1236 0
2274 868 -1236 0
-2275 868 0
-2275 -1236 0
2275 -868 1236 0
-2276 -2274 0
-2276 -2275 0
2276 2274 2275 0
-2271 -867 0
-2271 1235 0
2271 867 -1235 0
-2272 867 0
-2272 -1235 0
2272 -867 1235 0
-2273 -2271 0
-2273 -2272 0
2273 2271 2272 0
-2268 -866 0
-2268 1234 0
2268 866 -1234 0
-2269 866 0
-2269 -1234 0
2269 -866 1234 0
-2270 -2268 0
-2270 -2269 0
2270 2268 2269 0
-2265 -865 0
-2265 1233 0
2265 865 -1233 0
-2266 865 0
-2266 -1233 0
2266 -865 1233 0
-2267 -2265 0
-2267 -2266 0
2267 2265 2266 0
-2262 -864 0
-2262 1232 0
2262 864 -1232 0
-2263 864 0
-2263 -1232 0
2263 -864 1232 0
-2264 -2262 0
-2264 -2263 0
2264 2262 2263 0
-2259 -863 0
-2259 1231 0
2259 863 -1231 0
-2260 863 0
-2260 -1231 0
2260 -863 1231 0
-2261 -2259 0
-2261 -2260 0
2261 2259 2260 0
-2256 -862 0
-2256 1230 0
2256 862 -1230 0
-2257 862 0
-2257 -1230 0
2257 -862 1230 0
-2258 -2256 0
-2258 -2257 0
2258 2256 2257 0
-2253 -861 0
-2253 1229 0
2253 861 -1229 0
-2254 861 0
-2254 -1229 0
2254 -861 1229 0
-2255 -2253 0
-2255 -2254 0
2255 2253 2254 0
-2250 -860 0
-2250 1228 0
2250 860 -1228 0
-2251 860 0
-2251 -1228 0
2251 -860 1228 0
-2252 -2250 0
-2252 -2251 0
2252 2250 2251 0
-2247 -859 0
-2247 1227 0
2247 859 -1227 0
-2248 859 0
-2248 -1227 0
2248 -859 1227 0
-2249 -2247 0
-2249 -2248 0
2249 2247 2248 0
-2244 -858 0
-2244 1226 0
2244 858 -1226 0
-2245 858 0
-2245 -1226 0
2245 -858 1226 0
-2246 -2244 0
-2246 -2245 0
2246 2244 2245 0
-2241 -857 0
-2241 1225 0
2241 857 -1225 0
-2242 857 0
-2242 -1225 0
2242 -857 1225 0
-2243 -2241 0
-2243 -2242 0
2243 2241 2242 0
-2238 -856 0
-2238 1224 0
2238 856 -1224 0
-2239 856 0
-2239 -1224 0
2239 -856 1224 0
-2240 -2238 0
-2240 -2239 0
2240 2238 2239 0
-2235 -855 0
-2235 1223 0
2235 855 -1223 0
-2236 855 0
-2236 -1223 0
2236 -855 1223 0
-2237 -2235 0
-2237 -2236 0
2237 2235 2236 0
-2232 -854 0
-2232 1222 0
2232 854 -1222 0
-2233 854 0
-2233 -1222 0
2233 -854 1222 0
-2234 -2232 0
-2234 -2233 0
2234 2232 2233 0
-2229 -853 0
-2229 1221 0
2229 853 -1221 0
-2230 853 0
-2230 -1221 0
2230 -853 1221 0
-2231 -2229 0
-2231 -2230 0
2231 2229 2230 0
-2226 -852 0
-2226 1220 0
2226 852 -1220 0
-2227 852 0
-2227 -1220 0
2227 -852 1220 0
-2228 -2226 0
-2228 -2227 0
2228 2226 2227 0
-2223 -851 0
-2223 1219 0
2223 851 -1219 0
-2224 851 0
-2224 -1219 0
2224 -851 1219 0
-2225 -2223 0
-2225 -2224 0
2225 2223 2224 0
-2220 -850 0
-2220 1218 0
2220 850 -1218 0
-2221 850 0
-2221 -1218 0
2221 -850 1218 0
-2222 -2220 0
-2222 -2221 0
2222 2220 2221 0
-2217 -849 0
-2217 1217 0
2217 849 -1217 0
-2218 849 0
-2218 -1217 0
2218 -849 1217 0
-2219 -2217 0
-2219 -2218 0
2219 2217 2218 0
-2214 -848 0
-2214 1216 0
2214 848 -1216 0
-2215 848 0
-2215 -1216 0
2215 -848 1216 0
-2216 -2214 0
-2216 -2215 0
2216 2214 2215 0
-2211 -847 0
-2211 1215 0
2211 847 -1215 0
-2212 847 0
-2212 -1215 0
2212 -847 1215 0
-2213 -2211 0
-2213 -2212 0
2213 2211 2212 0
-2208 -846 0
-2208 1214 0
2208 846 -1214 0
-2209 846 0
-2209 -1214 0
2209 -846 1214 0
-2210 -2208 0
-2210 -2209 0
2210 2208 2209 0
-2205 -845 0
-2205 1213 0
2205 845 -1213 0
-2206 845 0
-2206 -1213 0
2206 -845 1213 0
-2207 -2205 0
-2207 -2206 0
2207 2205 2206 0
-2202 -844 0
-2202 1212 0
2202 844 -1212 0
-2203 844 0
-2203 -1212 0
2203 -844 1212 0
-2204 -2202 0
-2204 -2203 0
2204 2202 2203 0
-2199 -843 0
-2199 1211 0
2199 843 -1211 0
-2200 843 0
-2200 -1211 0
2200 -843 1211 0
-2201 -2199 0
-2201 -2200 0
2201 2199 2200 0
-2196 -842 0
-2196 1210 0
2196 842 -1210 0
-2197 842 0
-2197 -1210 0
2197 -842 1210 0
-2198 -2196 0
-2198 -2197 0
2198 2196 2197 0
-2193 -841 0
-2193 1209 0
2193 841 -1209 0
-2194 841 0
-2194 -1209 0
2194 -841 1209 0
-2195 -2193 0
-2195 -2194 0
2195 2193 2194 0
-2190 -840 0
-2190 1208 0
2190 840 -1208 0
-2191 840 0
-2191 -1208 0
2191 -840 1208 0
-2192 -2190 0
-2192 -2191 0
2192 2190 2191 0
-2187 -839 0
-2187 1207 0
2187 839 -1207 0
-2188 839 0
-2188 -1207 0
2188 -839 1207 0
-2189 -2187 0
-2189 -2188 0
2189 2187 2188 0
-2184 -838 0
-2184 1206 0
2184 838 -1206 0
-2185 838 0
-2185 -1206 0
2185 -838 1206 0
-2186 -2184 0
-2186 -2185 0
2186 2184 2185 0
-2181 -837 0
-2181 1205 0
2181 837 -1205 0
-2182 837 0
-2182 -1205 0
2182 -837 1205 0
-2183 -2181 0
-2183 -2182 0
2183 2181 2182 0
-2178 -836 0
-2178 1204 0
2178 836 -1204 0
-2179 836 0
-2179 -1204 0
2179 -836 1204 0
-2180 -2178 0
-2180 -2179 0
2180 2178 2179 0
-2175 -835 0
-2175 1203 0
2175 835 -1203 0
-2176 835 0
-2176 -1203 0
2176 -835 1203 0
-2177 -2175 0
-2177 -2176 0
2177 2175 2176 0
-2172 -834 0
-2172 1202 0
2172 834 -1202 0
-2173 834 0
-2173 -1202 0
2173 -834 1202 0
-2174 -2172 0
-2174 -2173 0
2174 2172 2173 0
-2169 -833 0
-2169 1201 0
2169 833 -1201 0
-2170 833 0
-2170 -1201 0
2170 -833 1201 0
-2171 -2169 0
-2171 -2170 0
2171 2169 2170 0
-2166 -832 0
-2166 1200 0
2166 832 -1200 0
-2167 832 0
-2167 -1200 0
2167 -832 1200 0
-2168 -2166 0
-2168 -2167 0
2168 2166 2167 0
-2163 -831 0
-2163 1199 0
2163 831 -1199 0
-2164 831 0
-2164 -1199 0
2164 -831 1199 0
-2165 -2163 0
-2165 -2164 0
2165 2163 2164 0
-2160 -830 0
-2160 1198 0
2160 830 -1198 0
-2161 830 0
-2161 -1198 0
2161 -830 1198 0
-2162 -2160 0
-2162 -2161 0
2162 2160 2161 0
-2157 -829 0
-2157 1197 0
2157 829 -1197 0
-2158 829 0
-2158 -1197 0
2158 -829 1197 0
-2159 -2157 0
-2159 -2158 0
2159 2157 2158 0
-2154 -828 0
-2154 1196 0
2154 828 -1196 0
-2155 828 0
-2155 -1196 0
2155 -828 1196 0
-2156 -2154 0
-2156 -2155 0
2156 2154 2155 0
-2151 -827 0
-2151 1195 0
2151 827 -1195 0
-2152 827 0
-2152 -1195 0
2152 -827 1195 0
-2153 -2151 0
-2153 -2152 0
2153 2151 2152 0
-2148 -826 0
-2148 1194 0
2148 826 -1194 0
-2149 826 0
-2149 -1194 0
2149 -826 1194 0
-2150 -2148 0
-2150 -2149 0
2150 2148 2149 0
-2145 -825 0
-2145 1193 0
2145 825 -1193 0
-2146 825 0
-2146 -1193 0
2146 -825 1193 0
-2147 -2145 0
-2147 -2146 0
2147 2145 2146 0
-2142 -824 0
-2142 1192 0
2142 824 -1192 0
-2143 824 0
-2143 -1192 0
2143 -824 1192 0
-2144 -2142 0
-2144 -2143 0
2144 2142 2143 0
-2139 -823 0
-2139 1191 0
2139 823 -1191 0
-2140 823 0
-2140 -1191 0
2140 -823 1191 0
-2141 -2139 0
-2141 -2140 0
2141 2139 2140 0
-2133 -821 0
-2133 1189 0
2133 821 -1189 0
-2134 821 0
-2134 -1189 0
2134 -821 1189 0
-2135 -2133 0
-2135 -2134 0
2135 2133 2134 0
-2136 -822 0
-2136 1190 0
2136 822 -1190 0
-2137 822 0
-2137 -1190 0
2137 -822 1190 0
-2138 -2136 0
-2138 -2137 0
2138 2136 2137 0
-2322 2135 0
-2322 2138 0
2322 -2135 -2138 0
-2323 2141 0
-2323 2322 0
2323 -2141 -2322 0
-2324 2144 0
-2324 2323 0
2324 -2144 -2323 0
-2325 2147 0
-2325 2324 0
2325 -2147 -2324 0
-2326 2150 0
-2326 2325 0
2326 -2150 -2325 0
-2327 2153 0
-2327 2326 0
2327 -2153 -2326 0
-2328 2156 0
-2328 2327 0
2328 -2156 -2327 0
-2329 2159 0
-2329 2328 0
2329 -2159 -2328 0
-2330 2162 0
-2330 2329 0
2330 -2162 -2329 0
-2331 2165 0
-2331 2330 0
2331 -2165 -2330 0
-2332 2168 0
-2332 2331 0
2332 -2168 -2331 0
-2333 2171 0
-2333 2332 0
2333 -2171 -2332 0
-2334 2174 0
-2334 2333 0
2334 -2174 -2333 0
-2335 2177 0
-2335 2334 0
2335 -2177 -2334 0
-2336 2180 0
-2336 2335 0
2336 -2180 -2335 0
-2337 2183 0
-2337 2336 0
2337 -2183 -2336 0
-2338 2186 0
-2338 2337 0
2338 -2186 -2337 0
-2339 2189 0
-2339 2338 0
2339 -2189 -2338 0
-2340 2192 0
-2340 2339 0
2340 -2192 -2339 0
-2341 2195 0
-2341 2340 0
2341 -2195 -2340 0
-2342 2198 0
-2342 2341 0
2342 -2198 -2341 0
-2343 2201 0
-2343 2342 0
2343 -2201 -2342 0
-2344 2204 0
-2344 2343 0
2344 -2204 -2343 0
-2345 2207 0
-2345 2344 0
2345 -2207 -2344 0
-2346 2210 0
-2346 2345 0
2346 -2210 -2345 0
-2347 2213 0
-2347 2346 0
2347 -2213 -2346 0
-2348 2216 0
-2348 2347 0
2348 -2216 -2347 0
-2349 2219 0
-2349 2348 0
2349 -2219 -2348 0
-2350 2222 0
-2350 2349 0
2350 -2222 -2349 0
-2351 2225 0
-2351 2350 0
2351 -2225 -2350 0
-2352 2228 0
-2352 2351 0
2352 -2228 -2351 0
-2353 2231 0
-2353 2352 0
2353 -2231 -2352 0
-2354 2234 0
-2354 2353 0
2354 -2234 -2353 0
-2355 2237 0
-2355 2354 0
2355 -2237 -2354 0
-2356 2240 0
-2356 2355 0
2356 -2240 -2355 0
-2357 2243 0
-2357 2356 0
2357 -2243 -2356 0
-2358 2246 0
-2358 2357 0
2358 -2246 -2357 0
-2359 2249 0
-2359 2358 0
2359 -2249 -2358 0
-2360 2252 0
-2360 2359 0
2360 -2252 -2359 0
-2361 2255 0
-2361 2360 0
2361 -2255 -2360 0
-2362 2258 0
-2362 2361 0
2362 -2258 -2361 0
-2363 2261 0
-2363 2362 0
2363 -2261 -2362 0
-2364 2264 0
-2364 2363 0
2364 -2264 -2363 0
-2365 2267 0
-2365 2364 0
2365 -2267 -2364 0
-2366 2270 0
-2366 2365 0
2366 -2270 -2365 0
-2367 2273 0
-2367 2366 0
2367 -2273 -2366 0
-2368 2276 0
-2368 2367 0
2368 -2276 -2367 0
-2369 2279 0
-2369 2368 0
2369 -2279 -2368 0
-2370 2282 0
-2370 2369 0
2370 -2282 -2369 0
-2371 2285 0
-2371 2370 0
2371 -2285 -2370 0
-2372 2288 0
-2372 2371 0
2372 -2288 -2371 0
-2373 2291 0
-2373 2372 0
2373 -2291 -2372 0
-2374 2294 0
-2374 2373 0
2374 -2294 -2373 0
-2375 2297 0
-2375 2374 0
2375 -2297 -2374 0
-2376 2300 0
-2376 2375 0
2376 -2300 -2375 0
-2377 2303 0
-2377 2376 0
2377 -2303 -2376 0
-2378 2306 0
-2378 2377 0
2378 -2306 -2377 0
-2379 2309 0
-2379 2378 0
2379 -2309 -2378 0
-2380 2312 0
-2380 2379 0
2380 -2312 -2379 0
-2381 2315 0
-2381 2380 0
2381 -2315 -2380 0
-2382 2318 0
-2382 2381 0
2382 -2318 -2381 0
-2383 2321 0
-2383 2382 0
2383 -2321 -2382 0
-2384 -1252 0
-2384 2383 0
2384 1252 -2383 0
-2385 -746 0
-2385 -2384 0
2385 746 2384 0
-2386 2132 0
-2386 -2385 0
2386 -2132 2385 0
2387 -16499 0
-2387 16499 0
-2388 -345 0
-2388 2387 0
2388 345 -2387 0
-2389 345 0
-2389 -2387 0
2389 -345 2387 0
-2390 -2388 0
-2390 -2389 0
2390 2388 2389 0
-2391 2 0
-2391 -2390 0
2391 -2 2390 0
-2392 2386 0
-2392 -2391 0
2392 -2386 2391 0
-2393 -4 0
-2393 2387 0
2393 4 -2387 0
-2394 4 0
-2394 -2387 0
2394 -4 2387 0
-2395 -2393 0
-2395 -2394 0
2395 2393 2394 0
-2396 -2 0
-2396 -2395 0
2396 2 2395 0
-2397 2392 0
-2397 -2396 0
2397 -2392 2396 0
2398 -16500 0
-2398 16500 0
-2399 -1692 0
-2399 2398 0
2399 1692 -2398 0
-2400 1692 0
-2400 -2398 0
2400 -1692 2398 0
-2401 -2399 0
-2401 -2400 0
2401 2399 2400 0
-2402 746 0
-2402 -2401 0
2402 -746 2401 0
-2403 2397 0
-2403 -2402 0
2403 -2397 2402 0
-2404 -2387 0
-2404 2398 0
2404 2387 -2398 0
-2405 2387 0
-2405 -2398 0
2405 -2387 2398 0
-2406 -2404 0
-2406 -2405 0
2406 2404 2405 0
-2407 -746 0
-2407 -2406 0
2407 746 2406 0
-2408 2403 0
-2408 -2407 0
2408 -2403 2407 0
2418 -16510 0
-2418 16510 0
2417 -16509 0
-2417 16509 0
2416 -16508 0
-2416 16508 0
2415 -16507 0
-2415 16507 0
2414 -16506 0
-2414 16506 0
2413 -16505 0
-2413 16505 0
2412 -16504 0
-2412 16504 0
2411 -16503 0
-2411 16503 0
2409 -16501 0
-2409 16501 0
2410 -16502 0
-2410 16502 0
-2419 2409 0
-2419 -2410 0
2419 -2409 2410 0
-2420 -2411 0
-2420 2419 0
2420 2411 -2419 0
-2421 -2412 0
-2421 2420 0
2421 2412 -2420 0
-2422 -2413 0
-2422 2421 0
2422 2413 -2421 0
-2423 -2414 0
-2423 2422 0
2423 2414 -2422 0
-2424 -2415 0
-2424 2423 0
2424 2415 -2423 0
-2425 -2416 0
-2425 2424 0
2425 2416 -2424 0
-2426 -2417 0
-2426 2425 0
2426 2417 -2425 0
-2427 -2418 0
-2427 2426 0
2427 2418 -2426 0
-2428 2398 0
-2428 -2427 0
2428 -2398 2427 0
-2429 2408 0
-2429 -2428 0
2429 -2408 2428 0
-2430 -2409 0
-2430 -2410 0
2430 2409 2410 0
-2431 -2411 0
-2431 2430 0
2431 2411 -2430 0
-2432 -2412 0
-2432 2431 0
2432 2412 -2431 0
-2433 -2413 0
-2433 2432 0
2433 2413 -2432 0
-2434 -2414 0
-2434 2433 0
2434 2414 -2433 0
-2435 -2415 0
-2435 2434 0
2435 2415 -2434 0
-2436 -2416 0
-2436 2435 0
2436 2416 -2435 0
-2437 -2417 0
-2437 2436 0
2437 2417 -2436 0
-2438 -2418 0
-2438 2437 0
2438 2418 -2437 0
-2439 -2398 0
-2439 -2438 0
2439 2398 2438 0
-2440 2429 0
-2440 -2439 0
2440 -2429 2439 0
2503 -16573 0
-2503 16573 0
2502 -16572 0
-2502 16572 0
-2687 -1878 0
-2687 2502 0
2687 1878 -2502 0
-2688 1878 0
-2688 -2502 0
2688 -1878 2502 0
-2689 -2687 0
-2689 -2688 0
2689 2687 2688 0
2501 -16571 0
-2501 16571 0
-2684 -1875 0
-2684 2501 0
2684 1875 -2501 0
-2685 1875 0
-2685 -2501 0
2685 -1875 2501 0
-2686 -2684 0
-2686 -2685 0
2686 2684 2685 0
2500 -16570 0
-2500 16570 0
-2681 -1872 0
-2681 2500 0
2681 1872 -2500 0
-2682 1872 0
-2682 -2500 0
2682 -1872 2500 0
-2683 -2681 0
-2683 -2682 0
2683 2681 2682 0
2499 -16569 0
-2499 16569 0
-2678 -1869 0
-2678 2499 0
2678 1869 -2499 0
-2679 1869 0
-2679 -2499 0
2679 -1869 2499 0
-2680 -2678 0
-2680 -2679 0
2680 2678 2679 0
2498 -16568 0
-2498 16568 0
-2675 -1866 0
-2675 2498 0
2675 1866 -2498 0
-2676 1866 0
-2676 -2498 0
2676 -1866 2498 0
-2677 -2675 0
-2677 -2676 0
2677 2675 2676 0
2497 -16567 0
-2497 16567 0
-2672 -1863 0
-2672 2497 0
2672 1863 -2497 0
-2673 1863 0
-2673 -2497 0
2673 -1863 2497 0
-2674 -2672 0
-2674 -2673 0
2674 2672 2673 0
2496 -16566 0
-2496 16566 0
-2669 -1860 0
-2669 2496 0
2669 1860 -2496 0
-2670 1860 0
-2670 -2496 0
2670 -1860 2496 0
-2671 -2669 0
-2671 -2670 0
2671 2669 2670 0
2495 -16565 0
-2495 16565 0
-2666 -1857 0
-2666 2495 0
2666 1857 -2495 0
-2667 1857 0
-2667 -2495 0
2667 -1857 2495 0
-2668 -2666 0
-2668 -2667 0
2668 2666 2667 0
2494 -16564 0
-2494 16564 0
-2663 -1854 0
-2663 2494 0
2663 1854 -2494 0
-2664 1854 0
-2664 -2494 0
2664 -1854 2494 0
-2665 -2663 0
-2665 -2664 0
2665 2663 2664 0
2493 -16563 0
-2493 16563 0
-2660 -1851 0
-2660 2493 0
2660 1851 -2493 0
-2661 1851 0
-2661 -2493 0
2661 -1851 2493 0
-2662 -2660 0
-2662 -2661 0
2662 2660 2661 0
2492 -16562 0
-2492 16562 0
-2657 -1848 0
-2657 2492 0
2657 1848 -2492 0
-2658 1848 0
-2658 -2492 0
2658 -1848 2492 0
-2659 -2657 0
-2659 -2658 0
2659 2657 2658 0
2491 -16561 0
-2491 16561 0
-2654 -1845 0
-2654 2491 0
2654 1845 -2491 0
-2655 1845 0
-2655 -2491 0
2655 -1845 2491 0
-2656 -2654 0
-2656 -2655 0
2656 2654 2655 0
2490 -16560 0
-2490 16560 0
-2651 -1842 0
-2651 2490 0
2651 1842 -2490 0
-2652 1842 0
-2652 -2490 0
2652 -1842 2490 0
-2653 -2651 0
-2653 -2652 0
2653 2651 2652 0
2489 -16559 0
-2489 16559 0
-2648 -1839 0
-2648 2489 0
2648 1839 -2489 0
-2649 1839 0
-2649 -2489 0
2649 -1839 2489 0
-2650 -2648 0
-2650 -2649 0
2650 2648 2649 0
2488 -16558 0
-2488 16558 0
-2645 -1836 0
-2645 2488 0
2645 1836 -2488 0
-2646 1836 0
-2646 -2488 0
2646 -1836 2488 0
-2647 -2645 0
-2647 -2646 0
2647 2645 2646 0
2487 -16557 0
-2487 16557 0
-2642 -1833 0
-2642 2487 0
2642 1833 -2487 0
-2643 1833 0
-2643 -2487 0
2643 -1833 2487 0
-2644 -2642 0
-2644 -2643 0
2644 2642 2643 0
2486 -16556 0
-2486 16556 0
-2639 -1830 0
-2639 2486 0
2639 1830 -2486 0
-2640 1830 0
-2640 -2486 0
2640 -1830 2486 0
-2641 -2639 0
-2641 -2640 0
2641 2639 2640 0
2485 -16555 0
-2485 16555 0
-2636 -1827 0
-2636 2485 0
2636 1827 -2485 0
-2637 1827 0
-2637 -2485 0
2637 -1827 2485 0
-2638 -2636 0
-2638 -2637 0
2638 2636 2637 0
2484 -16554 0
-2484 16554 0
-2633 -1824 0
-2633 2484 0
2633 1824 -2484 0
-2634 1824 0
-2634 -2484 0
2634 -1824 2484 0
-2635 -2633 0
-2635 -2634 0
2635 2633 2634 0
2483 -16553 0
-2483 16553 0
-2630 -1821 0
-2630 2483 0
2630 1821 -2483 0
-2631 1821 0
-2631 -2483 0
2631 -1821 2483 0
-2632 -2630 0
-2632 -2631 0
2632 2630 2631 0
2482 -16552 0
-2482 16552 0
-2627 -1818 0
-2627 2482 0
2627 1818 -2482 0
-2628 1818 0
-2628 -2482 0
2628 -1818 2482 0
-2629 -2627 0
-2629 -2628 0
2629 2627 2628 0
2481 -16551 0
-2481 16551 0
-2624 -1815 0
-2624 2481 0
2624 1815 -2481 0
-2625 1815 0
-2625 -2481 0
2625 -1815 2481 0
-2626 -2624 0
-2626 -2625 0
2626 2624 2625 0
2480 -16550 0
-2480 16550 0
-2621 -1812 0
-2621 2480 0
2621 1812 -2480 0
-2622 1812 0
-2622 -2480 0
2622 -1812 2480 0
-2623 -2621 0
-2623 -2622 0
2623 2621 2622 0
2479 -16549 0
-2479 16549 0
-2618 -1809 0
-2618 2479 0
2618 1809 -2479 0
-2619 1809 0
-2619 -2479 0
2619 -1809 2479 0
-2620 -2618 0
-2620 -2619 0
2620 2618 2619 0
2478 -16548 0
-2478 16548 0
-2615 -1806 0
-2615 2478 0
2615 1806 -2478 0
-2616 1806 0
-2616 -2478 0
2616 -1806 2478 0
-2617 -2615 0
-2617 -2616 0
2617 2615 2616 0
2477 -16547 0
-2477 16547 0
-2612 -1803 0
-2612 2477 0
2612 1803 -2477 0
-2613 1803 0
-2613 -2477 0
2613 -1803 2477 0
-2614 -2612 0
-2614 -2613 0
2614 2612 2613 0
2476 -16546 0
-2476 16546 0
-2609 -1800 0
-2609 2476 0
2609 1800 -2476 0
-2610 1800 0
-2610 -2476 0
2610 -1800 2476 0
-2611 -2609 0
-2611 -2610 0
2611 2609 2610 0
2475 -16545 0
-2475 16545 0
-2606 -1797 0
-2606 2475 0
2606 1797 -2475 0
-2607 1797 0
-2607 -2475 0
2607 -1797 2475 0
-2608 -2606 0
-2608 -2607 0
2608 2606 2607 0
2474 -16544 0
-2474 16544 0
-2603 -1794 0
-2603 2474 0
2603 1794 -2474 0
-2604 1794 0
-2604 -2474 0
2604 -1794 2474 0
-2605 -2603 0
-2605 -2604 0
2605 2603 2604 0
2473 -16543 0
-2473 16543 0
-2600 -1791 0
-2600 2473 0
2600 1791 -2473 0
-2601 1791 0
-2601 -2473 0
2601 -1791 2473 0
-2602 -2600 0
-2602 -2601 0
2602 2600 2601 0
2472 -16542 0
-2472 16542 0
-2597 -1788 0
-2597 2472 0
2597 1788 -2472 0
-2598 1788 0
-2598 -2472 0
2598 -1788 2472 0
-2599 -2597 0
-2599 -2598 0
2599 2597 2598 0
2471 -16541 0
-2471 16541 0
-2594 -1785 0
-2594 2471 0
2594 1785 -2471 0
-2595 1785 0
-2595 -2471 0
2595 -1785 2471 0
-2596 -2594 0
-2596 -2595 0
2596 2594 2595 0
2470 -16540 0
-2470 16540 0
-2591 -1782 0
-2591 2470 0
2591 1782 -2470 0
-2592 1782 0
-2592 -2470 0
2592 -1782 2470 0
-2593 -2591 0
-2593 -2592 0
2593 2591 2592 0
2469 -16539 0
-2469 16539 0
-2588 -1779 0
-2588 2469 0
2588 1779 -2469 0
-2589 1779 0
-2589 -2469 0
2589 -1779 2469 0
-2590 -2588 0
-2590 -2589 0
2590 2588 2589 0
2468 -16538 0
-2468 16538 0
-2585 -1776 0
-2585 2468 0
2585 1776 -2468 0
-2586 1776 0
-2586 -2468 0
2586 -1776 2468 0
-2587 -2585 0
-2587 -2586 0
2587 2585 2586 0
2467 -16537 0
-2467 16537 0
-2582 -1773 0
-2582 2467 0
2582 1773 -2467 0
-2583 1773 0
-2583 -2467 0
2583 -1773 2467 0
-2584 -2582 0
-2584 -2583 0
2584 2582 2583 0
2466 -16536 0
-2466 16536 0
-2579 -1770 0
-2579 2466 0
2579 1770 -2466 0
-2580 1770 0
-2580 -2466 0
2580 -1770 2466 0
-2581 -2579 0
-2581 -2580 0
2581 2579 2580 0
2465 -16535 0
-2465 16535 0
-2576 -1767 0
-2576 2465 0
2576 1767 -2465 0
-2577 1767 0
-2577 -2465 0
2577 -1767 2465 0
-2578 -2576 0
-2578 -2577 0
2578 2576 2577 0
2464 -16534 0
-2464 16534 0
-2573 -1764 0
-2573 2464 0
2573 1764 -2464 0
-2574 1764 0
-2574 -2464 0
2574 -1764 2464 0
-2575 -2573 0
-2575 -2574 0
2575 2573 2574 0
2463 -16533 0
-2463 16533 0
-2570 -1761 0
-2570 2463 0
2570 1761 -2463 0
-2571 1761 0
-2571 -2463 0
2571 -1761 2463 0
-2572 -2570 0
-2572 -2571 0
2572 2570 2571 0
2462 -16532 0
-2462 16532 0
-2567 -1758 0
-2567 2462 0
2567 1758 -2462 0
-2568 1758 0
-2568 -2462 0
2568 -1758 2462 0
-2569 -2567 0
-2569 -2568 0
2569 2567 2568 0
2461 -16531 0
-2461 16531 0
-2564 -1755 0
-2564 2461 0
2564 1755 -2461 0
-2565 1755 0
-2565 -2461 0
2565 -1755 2461 0
-2566 -2564 0
-2566 -2565 0
2566 2564 2565 0
2460 -16530 0
-2460 16530 0
-2561 -1752 0
-2561 2460 0
2561 1752 -2460 0
-2562 1752 0
-2562 -2460 0
2562 -1752 2460 0
-2563 -2561 0
-2563 -2562 0
2563 2561 2562 0
2459 -16529 0
-2459 16529 0
-2558 -1749 0
-2558 2459 0
2558 1749 -2459 0
-2559 1749 0
-2559 -2459 0
2559 -1749 2459 0
-2560 -2558 0
-2560 -2559 0
2560 2558 2559 0
2458 -16528 0
-2458 16528 0
-2555 -1746 0
-2555 2458 0
2555 1746 -2458 0
-2556 1746 0
-2556 -2458 0
2556 -1746 2458 0
-2557 -2555 0
-2557 -2556 0
2557 2555 2556 0
2457 -16527 0
-2457 16527 0
-2552 -1743 0
-2552 2457 0
2552 1743 -2457 0
-2553 1743 0
-2553 -2457 0
2553 -1743 2457 0
-2554 -2552 0
-2554 -2553 0
2554 2552 2553 0
2456 -16526 0
-2456 16526 0
-2549 -1740 0
-2549 2456 0
2549 1740 -2456 0
-2550 1740 0
-2550 -2456 0
2550 -1740 2456 0
-2551 -2549 0
-2551 -2550 0
2551 2549 2550 0
2455 -16525 0
-2455 16525 0
-2546 -1737 0
-2546 2455 0
2546 1737 -2455 0
-2547 1737 0
-2547 -2455 0
2547 -1737 2455 0
-2548 -2546 0
-2548 -2547 0
2548 2546 2547 0
2454 -16524 0
-2454 16524 0
-2543 -1734 0
-2543 2454 0
2543 1734 -2454 0
-2544 1734 0
-2544 -2454 0
2544 -1734 2454 0
-2545 -2543 0
-2545 -2544 0
2545 2543 2544 0
2453 -16523 0
-2453 16523 0
-2540 -1731 0
-2540 2453 0
2540 1731 -2453 0
-2541 1731 0
-2541 -2453 0
2541 -1731 2453 0
-2542 -2540 0
-2542 -2541 0
2542 2540 2541 0
2452 -16522 0
-2452 16522 0
-2537 -1728 0
-2537 2452 0
2537 1728 -2452 0
-2538 1728 0
-2538 -2452 0
2538 -1728 2452 0
-2539 -2537 0
-2539 -2538 0
2539 2537 2538 0
2451 -16521 0
-2451 16521 0
-2534 -1725 0
-2534 2451 0
2534 1725 -2451 0
-2535 1725 0
-2535 -2451 0
2535 -1725 2451 0
-2536 -2534 0
-2536 -2535 0
2536 2534 2535 0
2450 -16520 0
-2450 16520 0
-2531 -1722 0
-2531 2450 0
2531 1722 -2450 0
-2532 1722 0
-2532 -2450 0
2532 -1722 2450 0
-2533 -2531 0
-2533 -2532 0
2533 2531 2532 0
2449 -16519 0
-2449 16519 0
-2528 -1719 0
-2528 2449 0
2528 1719 -2449 0
-2529 1719 0
-2529 -2449 0
2529 -1719 2449 0
-2530 -2528 0
-2530 -2529 0
2530 2528 2529 0
2448 -16518 0
-2448 16518 0
-2525 -1716 0
-2525 2448 0
2525 1716 -2448 0
-2526 1716 0
-2526 -2448 0
2526 -1716 2448 0
-2527 -2525 0
-2527 -2526 0
2527 2525 2526 0
2447 -16517 0
-2447 16517 0
-2522 -1713 0
-2522 2447 0
2522 1713 -2447 0
-2523 1713 0
-2523 -2447 0
2523 -1713 2447 0
-2524 -2522 0
-2524 -2523 0
2524 2522 2523 0
2446 -16516 0
-2446 16516 0
-2519 -1710 0
-2519 2446 0
2519 1710 -2446 0
-2520 1710 0
-2520 -2446 0
2520 -1710 2446 0
-2521 -2519 0
-2521 -2520 0
2521 2519 2520 0
2445 -16515 0
-2445 16515 0
-2516 -1707 0
-2516 2445 0
2516 1707 -2445 0
-2517 1707 0
-2517 -2445 0
2517 -1707 2445 0
-2518 -2516 0
-2518 -2517 0
2518 2516 2517 0
2444 -16514 0
-2444 16514 0
-2513 -1704 0
-2513 2444 0
2513 1704 -2444 0
-2514 1704 0
-2514 -2444 0
2514 -1704 2444 0
-2515 -2513 0
-2515 -2514 0
2515 2513 2514 0
2443 -16513 0
-2443 16513 0
-2510 -1701 0
-2510 2443 0
2510 1701 -2443 0
-2511 1701 0
-2511 -2443 0
2511 -1701 2443 0
-2512 -2510 0
-2512 -2511 0
2512 2510 2511 0
2441 -16511 0
-2441 16511 0
-2504 -1695 0
-2504 2441 0
2504 1695 -2441 0
-2505 1695 0
-2505 -2441 0
2505 -1695 2441 0
-2506 -2504 0
-2506 -2505 0
2506 2504 2505 0
2442 -16512 0
-2442 16512 0
-2507 -1698 0
-2507 2442 0
2507 1698 -2442 0
-2508 1698 0
-2508 -2442 0
2508 -1698 2442 0
-2509 -2507 0
-2509 -2508 0
2509 2507 2508 0
-2690 2506 0
-2690 2509 0
2690 -2506 -2509 0
-2691 2512 0
-2691 2690 0
2691 -2512 -2690 0
-2692 2515 0
-2692 2691 0
2692 -2515 -2691 0
-2693 2518 0
-2693 2692 0
2693 -2518 -2692 0
-2694 2521 0
-2694 2693 0
2694 -2521 -2693 0
-2695 2524 0
-2695 2694 0
2695 -2524 -2694 0
-2696 2527 0
-2696 2695 0
2696 -2527 -2695 0
-2697 2530 0
-2697 2696 0
2697 -2530 -2696 0
-2698 2533 0
-2698 2697 0
2698 -2533 -2697 0
-2699 2536 0
-2699 2698 0
2699 -2536 -2698 0
-2700 2539 0
-2700 2699 0
2700 -2539 -2699 0
-2701 2542 0
-2701 2700 0
2701 -2542 -2700 0
-2702 2545 0
-2702 2701 0
2702 -2545 -2701 0
-2703 2548 0
-2703 2702 0
2703 -2548 -2702 0
-2704 2551 0
-2704 2703 0
2704 -2551 -2703 0
-2705 2554 0
-2705 2704 0
2705 -2554 -2704 0
-2706 2557 0
-2706 2705 0
2706 -2557 -2705 0
-2707 2560 0
-2707 2706 0
2707 -2560 -2706 0
-2708 2563 0
-2708 2707 0
2708 -2563 -2707 0
-2709 2566 0
-2709 2708 0
2709 -2566 -2708 0
-2710 2569 0
-2710 2709 0
2710 -2569 -2709 0
-2711 2572 0
-2711 2710 0
2711 -2572 -2710 0
-2712 2575 0
-2712 2711 0
2712 -2575 -2711 0
-2713 2578 0
-2713 2712 0
2713 -2578 -2712 0
-2714 2581 0
-2714 2713 0
2714 -2581 -2713 0
-2715 2584 0
-2715 2714 0
2715 -2584 -2714 0
-2716 2587 0
-2716 2715 0
2716 -2587 -2715 0
-2717 2590 0
-2717 2716 0
2717 -2590 -2716 0
-2718 2593 0
-2718 2717 0
2718 -2593 -2717 0
-2719 2596 0
-2719 2718 0
2719 -2596 -2718 0
-2720 2599 0
-2720 2719 0
2720 -2599 -2719 0
-2721 2602 0
-2721 2720 0
2721 -2602 -2720 0
-2722 2605 0
-2722 2721 0
2722 -2605 -2721 0
-2723 2608 0
-2723 2722 0
2723 -2608 -2722 0
-2724 2611 0
-2724 2723 0
2724 -2611 -2723 0
-2725 2614 0
-2725 2724 0
2725 -2614 -2724 0
-2726 2617 0
-2726 2725 0
2726 -2617 -2725 0
-2727 2620 0
-2727 2726 0
2727 -2620 -2726 0
-2728 2623 0
-2728 2727 0
2728 -2623 -2727 0
-2729 2626 0
-2729 2728 0
2729 -2626 -2728 0
-2730 2629 0
-2730 2729 0
2730 -2629 -2729 0
-2731 2632 0
-2731 2730 0
2731 -2632 -2730 0
-2732 2635 0
-2732 2731 0
2732 -2635 -2731 0
-2733 2638 0
-2733 2732 0
2733 -2638 -2732 0
-2734 2641 0
-2734 2733 0
2734 -2641 -2733 0
-2735 2644 0
-2735 2734 0
2735 -2644 -2734 0
-2736 2647 0
-2736 2735 0
2736 -2647 -2735 0
-2737 2650 0
-2737 2736 0
2737 -2650 -2736 0
-2738 2653 0
-2738 2737 0
2738 -2653 -2737 0
-2739 2656 0
-2739 2738 0
2739 -2656 -2738 0
-2740 2659 0
-2740 2739 0
2740 -2659 -2739 0
-2741 2662 0
-2741 2740 0
2741 -2662 -2740 0
-2742 2665 0
-2742 2741 0
2742 -2665 -2741 0
-2743 2668 0
-2743 2742 0
2743 -2668 -2742 0
-2744 2671 0
-2744 2743 0
2744 -2671 -2743 0
-2745 2674 0
-2745 2744 0
2745 -2674 -2744 0
-2746 2677 0
-2746 2745 0
2746 -2677 -2745 0
-2747 2680 0
-2747 2746 0
2747 -2680 -2746 0
-2748 2683 0
-2748 2747 0
2748 -2683 -2747 0
-2749 2686 0
-2749 2748 0
2749 -2686 -2748 0
-2750 2689 0
-2750 2749 0
2750 -2689 -2749 0
-2751 -2503 0
-2751 2750 0
2751 2503 -2750 0
-2752 746 0
-2752 -2751 0
2752 -746 2751 0
-2753 2440 0
-2753 -2752 0
2753 -2440 2752 0
-2937 -883 0
-2937 2502 0
2937 883 -2502 0
-2938 883 0
-2938 -2502 0
2938 -883 2502 0
-2939 -2937 0
-2939 -2938 0
2939 2937 2938 0
-2934 -882 0
-2934 2501 0
2934 882 -2501 0
-2935 882 0
-2935 -2501 0
2935 -882 2501 0
-2936 -2934 0
-2936 -2935 0
2936 2934 2935 0
-2931 -881 0
-2931 2500 0
2931 881 -2500 0
-2932 881 0
-2932 -2500 0
2932 -881 2500 0
-2933 -2931 0
-2933 -2932 0
2933 2931 2932 0
-2928 -880 0
-2928 2499 0
2928 880 -2499 0
-2929 880 0
-2929 -2499 0
2929 -880 2499 0
-2930 -2928 0
-2930 -2929 0
2930 2928 2929 0
-2925 -879 0
-2925 2498 0
2925 879 -2498 0
-2926 879 0
-2926 -2498 0
2926 -879 2498 0
-2927 -2925 0
-2927 -2926 0
2927 2925 2926 0
-2922 -878 0
-2922 2497 0
2922 878 -2497 0
-2923 878 0
-2923 -2497 0
2923 -878 2497 0
-2924 -2922 0
-2924 -2923 0
2924 2922 2923 0
-2919 -877 0
-2919 2496 0
2919 877 -2496 0
-2920 877 0
-2920 -2496 0
2920 -877 2496 0
-2921 -2919 0
-2921 -2920 0
2921 2919 2920 0
-2916 -876 0
-2916 2495 0
2916 876 -2495 0
-2917 876 0
-2917 -2495 0
2917 -876 2495 0
-2918 -2916 0
-2918 -2917 0
2918 2916 2917 0
-2913 -875 0
-2913 2494 0
2913 875 -2494 0
-2914 875 0
-2914 -2494 0
2914 -875 2494 0
-2915 -2913 0
-2915 -2914 0
2915 2913 2914 0
-2910 -874 0
-2910 2493 0
2910 874 -2493 0
-2911 874 0
-2911 -2493 0
2911 -874 2493 0
-2912 -2910 0
-2912 -2911 0
2912 2910 2911 0
-2907 -873 0
-2907 2492 0
2907 873 -2492 0
-2908 873 0
-2908 -2492 0
2908 -873 2492 0
-2909 -2907 0
-2909 -2908 0
2909 2907 2908 0
-2904 -872 0
-2904 2491 0
2904 872 -2491 0
-2905 872 0
-2905 -2491 0
2905 -872 2491 0
-2906 -2904 0
-2906 -2905 0
2906 2904 2905 0
-2901 -871 0
-2901 2490 0
2901 871 -2490 0
-2902 871 0
-2902 -2490 0
2902 -871 2490 0
-2903 -2901 0
-2903 -2902 0
2903 2901 2902 0
-2898 -870 0
-2898 2489 0
2898 870 -2489 0
-2899 870 0
-2899 -2489 0
2899 -870 2489 0
-2900 -2898 0
-2900 -2899 0
2900 2898 2899 0
-2895 -869 0
-2895 2488 0
2895 869 -2488 0
-2896 869 0
-2896 -2488 0
2896 -869 2488 0
-2897 -2895 0
-2897 -2896 0
2897 2895 2896 0
-2892 -868 0
-2892 2487 0
2892 868 -2487 0
-2893 868 0
-2893 -2487 0
2893 -868 2487 0
-2894 -2892 0
-2894 -2893 0
2894 2892 2893 0
-2889 -867 0
-2889 2486 0
2889 867 -2486 0
-2890 867 0
-2890 -2486 0
2890 -867 2486 0
-2891 -2889 0
-2891 -2890 0
2891 2889 2890 0
-2886 -866 0
-2886 2485 0
2886 866 -2485 0
-2887 866 0
-2887 -2485 0
2887 -866 2485 0
-2888 -2886 0
-2888 -2887 0
2888 2886 2887 0
-2883 -865 0
-2883 2484 0
2883 865 -2484 0
-2884 865 0
-2884 -2484 0
2884 -865 2484 0
-2885 -2883 0
-2885 -2884 0
2885 2883 2884 0
-2880 -864 0
-2880 2483 0
2880 864 -2483 0
-2881 864 0
-2881 -2483 0
2881 -864 2483 0
-2882 -2880 0
-2882 -2881 0
2882 2880 2881 0
-2877 -863 0
-2877 2482 0
2877 863 -2482 0
-2878 863 0
-2878 -2482 0
2878 -863 2482 0
-2879 -2877 0
-2879 -2878 0
2879 2877 2878 0
-2874 -862 0
-2874 2481 0
2874 862 -2481 0
-2875 862 0
-2875 -2481 0
2875 -862 2481 0
-2876 -2874 0
-2876 -2875 0
2876 2874 2875 0
-2871 -861 0
-2871 2480 0
2871 861 -2480 0
-2872 861 0
-2872 -2480 0
2872 -861 2480 0
-2873 -2871 0
-2873 -2872 0
2873 2871 2872 0
-2868 -860 0
-2868 2479 0
2868 860 -2479 0
-2869 860 0
-2869 -2479 0
2869 -860 2479 0
-2870 -2868 0
-2870 -2869 0
2870 2868 2869 0
-2865 -859 0
-2865 2478 0
2865 859 -2478 0
-2866 859 0
-2866 -2478 0
2866 -859 2478 0
-2867 -2865 0
-2867 -2866 0
2867 2865 2866 0
-2862 -858 0
-2862 2477 0
2862 858 -2477 0
-2863 858 0
-2863 -2477 0
2863 -858 2477 0
-2864 -2862 0
-2864 -2863 0
2864 2862 2863 0
-2859 -857 0
-2859 2476 0
2859 857 -2476 0
-2860 857 0
-2860 -2476 0
2860 -857 2476 0
-2861 -2859 0
-2861 -2860 0
2861 2859 2860 0
-2856 -856 0
-2856 2475 0
2856 856 -2475 0
-2857 856 0
-2857 -2475 0
2857 -856 2475 0
-2858 -2856 0
-2858 -2857 0
2858 2856 2857 0
-2853 -855 0
-2853 2474 0
2853 855 -2474 0
-2854 855 0
-2854 -2474 0
2854 -855 2474 0
-2855 -2853 0
-2855 -2854 0
2855 2853 2854 0
-2850 -854 0
-2850 2473 0
2850 854 -2473 0
-2851 854 0
-2851 -2473 0
2851 -854 2473 0
-2852 -2850 0
-2852 -2851 0
2852 2850 2851 0
-2847 -853 0
-2847 2472 0
2847 853 -2472 0
-2848 853 0
-2848 -2472 0
2848 -853 2472 0
-2849 -2847 0
-2849 -2848 0
2849 2847 2848 0
-2844 -852 0
-2844 2471 0
2844 852 -2471 0
-2845 852 0
-2845 -2471 0
2845 -852 2471 0
-2846 -2844 0
-2846 -2845 0
2846 2844 2845 0
-2841 -851 0
-2841 2470 0
2841 851 -2470 0
-2842 851 0
-2842 -2470 0
2842 -851 2470 0
-2843 -2841 0
-2843 -2842 0
2843 2841 2842 0
-2838 -850 0
-2838 2469 0
2838 850 -2469 0
-2839 850 0
-2839 -2469 0
2839 -850 2469 0
-2840 -2838 0
-2840 -2839 0
2840 2838 2839 0
-2835 -849 0
-2835 2468 0
2835 849 -2468 0
-2836 849 0
-2836 -2468 0
2836 -849 2468 0
-2837 -2835 0
-2837 -2836 0
2837 2835 2836 0
-2832 -848 0
-2832 2467 0
2832 848 -2467 0
-2833 848 0
-2833 -2467 0
2833 -848 2467 0
-2834 -2832 0
-2834 -2833 0
2834 2832 2833 0
-2829 -847 0
-2829 2466 0
2829 847 -2466 0
-2830 847 0
-2830 -2466 0
2830 -847 2466 0
-2831 -2829 0
-2831 -2830 0
2831 2829 2830 0
-2826 -846 0
-2826 2465 0
2826 846 -2465 0
-2827 846 0
-2827 -2465 0
2827 -846 2465 0
-2828 -2826 0
-2828 -2827 0
2828 2826 2827 0
-2823 -845 0
-2823 2464 0
2823 845 -2464 0
-2824 845 0
-2824 -2464 0
2824 -845 2464 0
-2825 -2823 0
-2825 -2824 0
2825 2823 2824 0
-2820 -844 0
-2820 2463 0
2820 844 -2463 0
-2821 844 0
-2821 -2463 0
2821 -844 2463 0
-2822 -2820 0
-2822 -2821 0
2822 2820 2821 0
-2817 -843 0
-2817 2462 0
2817 843 -2462 0
-2818 843 0
-2818 -2462 0
2818 -843 2462 0
-2819 -2817 0
-2819 -2818 0
2819 2817 2818 0
-2814 -842 0
-2814 2461 0
2814 842 -2461 0
-2815 842 0
-2815 -2461 0
2815 -842 2461 0
-2816 -2814 0
-2816 -2815 0
2816 2814 2815 0
-2811 -841 0
-2811 2460 0
2811 841 -2460 0
-2812 841 0
-2812 -2460 0
2812 -841 2460 0
-2813 -2811 0
-2813 -2812 0
2813 2811 2812 0
-2808 -840 0
-2808 2459 0
2808 840 -2459 0
-2809 840 0
-2809 -2459 0
2809 -840 2459 0
-2810 -2808 0
-2810 -2809 0
2810 2808 2809 0
-2805 -839 0
-2805 2458 0
2805 839 -2458 0
-2806 839 0
-2806 -2458 0
2806 -839 2458 0
-2807 -2805 0
-2807 -2806 0
2807 2805 2806 0
-2802 -838 0
-2802 2457 0
2802 838 -2457 0
-2803 838 0
-2803 -2457 0
2803 -838 2457 0
-2804 -2802 0
-2804 -2803 0
2804 2802 2803 0
-2799 -837 0
-2799 2456 0
2799 837 -2456 0
-2800 837 0
-2800 -2456 0
2800 -837 2456 0
-2801 -2799 0
-2801 -2800 0
2801 2799 2800 0
-2796 -836 0
-2796 2455 0
2796 836 -2455 0
-2797 836 0
-2797 -2455 0
2797 -836 2455 0
-2798 -2796 0
-2798 -2797 0
2798 2796 2797 0
-2793 -835 0
-2793 2454 0
2793 835 -2454 0
-2794 835 0
-2794 -2454 0
2794 -835 2454 0
-2795 -2793 0
-2795 -2794 0
2795 2793 2794 0
-2790 -834 0
-2790 2453 0
2790 834 -2453 0
-2791 834 0
-2791 -2453 0
2791 -834 2453 0
-2792 -2790 0
-2792 -2791 0
2792 2790 2791 0
-2787 -833 0
-2787 2452 0
2787 833 -2452 0
-2788 833 0
-2788 -2452 0
2788 -833 2452 0
-2789 -2787 0
-2789 -2788 0
2789 2787 2788 0
-2784 -832 0
-2784 2451 0
2784 832 -2451 0
-2785 832 0
-2785 -2451 0
2785 -832 2451 0
-2786 -2784 0
-2786 -2785 0
2786 2784 2785 0
-2781 -831 0
-2781 2450 0
2781 831 -2450 0
-2782 831 0
-2782 -2450 0
2782 -831 2450 0
-2783 -2781 0
-2783 -2782 0
2783 2781 2782 0
-2778 -830 0
-2778 2449 0
2778 830 -2449 0
-2779 830 0
-2779 -2449 0
2779 -830 2449 0
-2780 -2778 0
-2780 -2779 0
2780 2778 2779 0
-2775 -829 0
-2775 2448 0
2775 829 -2448 0
-2776 829 0
-2776 -2448 0
2776 -829 2448 0
-2777 -2775 0
-2777 -2776 0
2777 2775 2776 0
-2772 -828 0
-2772 2447 0
2772 828 -2447 0
-2773 828 0
-2773 -2447 0
2773 -828 2447 0
-2774 -2772 0
-2774 -2773 0
2774 2772 2773 0
-2769 -827 0
-2769 2446 0
2769 827 -2446 0
-2770 827 0
-2770 -2446 0
2770 -827 2446 0
-2771 -2769 0
-2771 -2770 0
2771 2769 2770 0
-2766 -826 0
-2766 2445 0
2766 826 -2445 0
-2767 826 0
-2767 -2445 0
2767 -826 2445 0
-2768 -2766 0
-2768 -2767 0
2768 2766 2767 0
-2763 -825 0
-2763 2444 0
2763 825 -2444 0
-2764 825 0
-2764 -2444 0
2764 -825 2444 0
-2765 -2763 0
-2765 -2764 0
2765 2763 2764 0
-2760 -824 0
-2760 2443 0
2760 824 -2443 0
-2761 824 0
-2761 -2443 0
2761 -824 2443 0
-2762 -2760 0
-2762 -2761 0
2762 2760 2761 0
-2754 -822 0
-2754 2441 0
2754 822 -2441 0
-2755 822 0
-2755 -2441 0
2755 -822 2441 0
-2756 -2754 0
-2756 -2755 0
2756 2754 2755 0
-2757 -823 0
-2757 2442 0
2757 823 -2442 0
-2758 823 0
-2758 -2442 0
2758 -823 2442 0
-2759 -2757 0
-2759 -2758 0
2759 2757 2758 0
-2940 2756 0
-2940 2759 0
2940 -2756 -2759 0
-2941 2762 0
-2941 2940 0
2941 -2762 -2940 0
-2942 2765 0
-2942 2941 0
2942 -2765 -2941 0
-2943 2768 0
-2943 2942 0
2943 -2768 -2942 0
-2944 2771 0
-2944 2943 0
2944 -2771 -2943 0
-2945 2774 0
-2945 2944 0
2945 -2774 -2944 0
-2946 2777 0
-2946 2945 0
2946 -2777 -2945 0
-2947 2780 0
-2947 2946 0
2947 -2780 -2946 0
-2948 2783 0
-2948 2947 0
2948 -2783 -2947 0
-2949 2786 0
-2949 2948 0
2949 -2786 -2948 0
-2950 2789 0
-2950 2949 0
2950 -2789 -2949 0
-2951 2792 0
-2951 2950 0
2951 -2792 -2950 0
-2952 2795 0
-2952 2951 0
2952 -2795 -2951 0
-2953 2798 0
-2953 2952 0
2953 -2798 -2952 0
-2954 2801 0
-2954 2953 0
2954 -2801 -2953 0
-2955 2804 0
-2955 2954 0
2955 -2804 -2954 0
-2956 2807 0
-2956 2955 0
2956 -2807 -2955 0
-2957 2810 0
-2957 2956 0
2957 -2810 -2956 0
-2958 2813 0
-2958 2957 0
2958 -2813 -2957 0
-2959 2816 0
-2959 2958 0
2959 -2816 -2958 0
-2960 2819 0
-2960 2959 0
2960 -2819 -2959 0
-2961 2822 0
-2961 2960 0
2961 -2822 -2960 0
-2962 2825 0
-2962 2961 0
2962 -2825 -2961 0
-2963 2828 0
-2963 2962 0
2963 -2828 -2962 0
-2964 2831 0
-2964 2963 0
2964 -2831 -2963 0
-2965 2834 0
-2965 2964 0
2965 -2834 -2964 0
-2966 2837 0
-2966 2965 0
2966 -2837 -2965 0
-2967 2840 0
-2967 2966 0
2967 -2840 -2966 0
-2968 2843 0
-2968 2967 0
2968 -2843 -2967 0
-2969 2846 0
-2969 2968 0
2969 -2846 -2968 0
-2970 2849 0
-2970 2969 0
2970 -2849 -2969 0
-2971 2852 0
-2971 2970 0
2971 -2852 -2970 0
-2972 2855 0
-2972 2971 0
2972 -2855 -2971 0
-2973 2858 0
-2973 2972 0
2973 -2858 -2972 0
-2974 2861 0
-2974 2973 0
2974 -2861 -2973 0
-2975 2864 0
-2975 2974 0
2975 -2864 -2974 0
-2976 2867 0
-2976 2975 0
2976 -2867 -2975 0
-2977 2870 0
-2977 2976 0
2977 -2870 -2976 0
-2978 2873 0
-2978 2977 0
2978 -2873 -2977 0
-2979 2876 0
-2979 2978 0
2979 -2876 -2978 0
-2980 2879 0
-2980 2979 0
2980 -2879 -2979 0
-2981 2882 0
-2981 2980 0
2981 -2882 -2980 0
-2982 2885 0
-2982 2981 0
2982 -2885 -2981 0
-2983 2888 0
-2983 2982 0
2983 -2888 -2982 0
-2984 2891 0
-2984 2983 0
2984 -2891 -2983 0
-2985 2894 0
-2985 2984 0
2985 -2894 -2984 0
-2986 2897 0
-2986 2985 0
2986 -2897 -2985 0
-2987 2900 0
-2987 2986 0
2987 -2900 -2986 0
-2988 2903 0
-2988 2987 0
2988 -2903 -2987 0
-2989 2906 0
-2989 2988 0
2989 -2906 -2988 0
-2990 2909 0
-2990 2989 0
2990 -2909 -2989 0
-2991 2912 0
-2991 2990 0
2991 -2912 -2990 0
-2992 2915 0
-2992 2991 0
2992 -2915 -2991 0
-2993 2918 0
-2993 2992 0
2993 -2918 -2992 0
-2994 2921 0
-2994 2993 0
2994 -2921 -2993 0
-2995 2924 0
-2995 2994 0
2995 -2924 -2994 0
-2996 2927 0
-2996 2995 0
2996 -2927 -2995 0
-2997 2930 0
-2997 2996 0
2997 -2930 -2996 0
-2998 2933 0
-2998 2997 0
2998 -2933 -2997 0
-2999 2936 0
-2999 2998 0
2999 -2936 -2998 0
-3000 2939 0
-3000 2999 0
3000 -2939 -2999 0
-3001 -2503 0
-3001 3000 0
3001 2503 -3000 0
-3002 -746 0
-3002 -3001 0
3002 746 3001 0
-3003 2753 0
-3003 -3002 0
3003 -2753 3002 0
3067 -16637 0
-3067 16637 0
3066 -16636 0
-3066 16636 0
-3491 1250 0
-3491 1251 0
3491 -1250 -1251 0
-3484 1249 0
-3484 1250 0
3484 -1249 -1250 0
-3477 1248 0
-3477 1249 0
3477 -1248 -1249 0
-3470 1247 0
-3470 1248 0
3470 -1247 -1248 0
-3463 1246 0
-3463 1247 0
3463 -1246 -1247 0
-3456 1245 0
-3456 1246 0
3456 -1245 -1246 0
-3449 1244 0
-3449 1245 0
3449 -1244 -1245 0
-3442 1243 0
-3442 1244 0
3442 -1243 -1244 0
-3435 1242 0
-3435 1243 0
3435 -1242 -1243 0
-3428 1241 0
-3428 1242 0
3428 -1241 -1242 0
-3421 1240 0
-3421 1241 0
3421 -1240 -1241 0
-3414 1239 0
-3414 1240 0
3414 -1239 -1240 0
-3407 1238 0
-3407 1239 0
3407 -1238 -1239 0
-3400 1237 0
-3400 1238 0
3400 -1237 -1238 0
-3393 1236 0
-3393 1237 0
3393 -1236 -1237 0
-3386 1235 0
-3386 1236 0
3386 -1235 -1236 0
-3379 1234 0
-3379 1235 0
3379 -1234 -1235 0
-3372 1233 0
-3372 1234 0
3372 -1233 -1234 0
-3365 1232 0
-3365 1233 0
3365 -1232 -1233 0
-3358 1231 0
-3358 1232 0
3358 -1231 -1232 0
-3351 1230 0
-3351 1231 0
3351 -1230 -1231 0
-3344 1229 0
-3344 1230 0
3344 -1229 -1230 0
-3337 1228 0
-3337 1229 0
3337 -1228 -1229 0
-3330 1227 0
-3330 1228 0
3330 -1227 -1228 0
-3323 1226 0
-3323 1227 0
3323 -1226 -1227 0
-3316 1225 0
-3316 1226 0
3316 -1225 -1226 0
-3309 1224 0
-3309 1225 0
3309 -1224 -1225 0
-3302 1223 0
-3302 1224 0
3302 -1223 -1224 0
-3295 1222 0
-3295 1223 0
3295 -1222 -1223 0
-3288 1221 0
-3288 1222 0
3288 -1221 -1222 0
-3281 1220 0
-3281 1221 0
3281 -1220 -1221 0
-3274 1219 0
-3274 1220 0
3274 -1219 -1220 0
-3267 1218 0
-3267 1219 0
3267 -1218 -1219 0
-3260 1217 0
-3260 1218 0
3260 -1217 -1218 0
-3253 1216 0
-3253 1217 0
3253 -1216 -1217 0
-3246 1215 0
-3246 1216 0
3246 -1215 -1216 0
-3239 1214 0
-3239 1215 0
3239 -1214 -1215 0
-3232 1213 0
-3232 1214 0
3232 -1213 -1214 0
-3225 1212 0
-3225 1213 0
3225 -1212 -1213 0
-3218 1211 0
-3218 1212 0
3218 -1211 -1212 0
-3211 1210 0
-3211 1211 0
3211 -1210 -1211 0
-3204 1209 0
-3204 1210 0
3204 -1209 -1210 0
-3197 1208 0
-3197 1209 0
3197 -1208 -1209 0
-3190 1207 0
-3190 1208 0
3190 -1207 -1208 0
-3183 1206 0
-3183 1207 0
3183 -1206 -1207 0
-3176 1205 0
-3176 1206 0
3176 -1205 -1206 0
-3169 1204 0
-3169 1205 0
3169 -1204 -1205 0
-3162 1203 0
-3162 1204 0
3162 -1203 -1204 0
-3155 1202 0
-3155 1203 0
3155 -1202 -1203 0
-3148 1201 0
-3148 1202 0
3148 -1201 -1202 0
-3141 1200 0
-3141 1201 0
3141 -1200 -1201 0
-3134 1199 0
-3134 1200 0
3134 -1199 -1200 0
-3127 1198 0
-3127 1199 0
3127 -1198 -1199 0
-3120 1197 0
-3120 1198 0
3120 -1197 -1198 0
-3113 1196 0
-3113 1197 0
3113 -1196 -1197 0
-3106 1195 0
-3106 1196 0
3106 -1195 -1196 0
-3099 1194 0
-3099 1195 0
3099 -1194 -1195 0
-3092 1193 0
-3092 1194 0
3092 -1193 -1194 0
-3085 1192 0
-3085 1193 0
3085 -1192 -1193 0
-3078 1191 0
-3078 1192 0
3078 -1191 -1192 0
-3071 1190 0
-3071 1191 0
3071 -1190 -1191 0
-3068 1189 0
-3068 1190 0
3068 -1189 -1190 0
-3072 -1190 0
-3072 -1191 0
3072 1190 1191 0
-3073 -3071 0
-3073 -3072 0
3073 3071 3072 0
-3074 3068 0
-3074 3073 0
3074 -3068 -3073 0
-3077 -3071 0
-3077 -3074 0
3077 3071 3074 0
-3079 -1191 0
-3079 -1192 0
3079 1191 1192 0
-3080 -3078 0
-3080 -3079 0
3080 3078 3079 0
-3081 -3077 0
-3081 3080 0
3081 3077 -3080 0
-3084 -3078 0
-3084 -3081 0
3084 3078 3081 0
-3086 -1192 0
-3086 -1193 0
3086 1192 1193 0
-3087 -3085 0
-3087 -3086 0
3087 3085 3086 0
-3088 -3084 0
-3088 3087 0
3088 3084 -3087 0
-3091 -3085 0
-3091 -3088 0
3091 3085 3088 0
-3093 -1193 0
-3093 -1194 0
3093 1193 1194 0
-3094 -3092 0
-3094 -3093 0
3094 3092 3093 0
-3095 -3091 0
-3095 3094 0
3095 3091 -3094 0
-3098 -3092 0
-3098 -3095 0
3098 3092 3095 0
-3100 -1194 0
-3100 -1195 0
3100 1194 1195 0
-3101 -3099 0
-3101 -3100 0
3101 3099 3100 0
-3102 -3098 0
-3102 3101 0
3102 3098 -3101 0
-3105 -3099 0
-3105 -3102 0
3105 3099 3102 0
-3107 -1195 0
-3107 -1196 0
3107 1195 1196 0
-3108 -3106 0
-3108 -3107 0
3108 3106 3107 0
-3109 -3105 0
-3109 3108 0
3109 3105 -3108 0
-3112 -3106 0
-3112 -3109 0
3112 3106 3109 0
-3114 -1196 0
-3114 -1197 0
3114 1196 1197 0
-3115 -3113 0
-3115 -3114 0
3115 3113 3114 0
-3116 -3112 0
-3116 3115 0
3116 3112 -3115 0
-3119 -3113 0
-3119 -3116 0
3119 3113 3116 0
-3121 -1197 0
-3121 -1198 0
3121 1197 1198 0
-3122 -3120 0
-3122 -3121 0
3122 3120 3121 0
-3123 -3119 0
-3123 3122 0
3123 3119 -3122 0
-3126 -3120 0
-3126 -3123 0
3126 3120 3123 0
-3128 -1198 0
-3128 -1199 0
3128 1198 1199 0
-3129 -3127 0
-3129 -3128 0
3129 3127 3128 0
-3130 -3126 0
-3130 3129 0
3130 3126 -3129 0
-3133 -3127 0
-3133 -3130 0
3133 3127 3130 0
-3135 -1199 0
-3135 -1200 0
3135 1199 1200 0
-3136 -3134 0
-3136 -3135 0
3136 3134 3135 0
-3137 -3133 0
-3137 3136 0
3137 3133 -3136 0
-3140 -3134 0
-3140 -3137 0
3140 3134 3137 0
-3142 -1200 0
-3142 -1201 0
3142 1200 1201 0
-3143 -3141 0
-3143 -3142 0
3143 3141 3142 0
-3144 -3140 0
-3144 3143 0
3144 3140 -3143 0
-3147 -3141 0
-3147 -3144 0
3147 3141 3144 0
-3149 -1201 0
-3149 -1202 0
3149 1201 1202 0
-3150 -3148 0
-3150 -3149 0
3150 3148 3149 0
-3151 -3147 0
-3151 3150 0
3151 3147 -3150 0
-3154 -3148 0
-3154 -3151 0
3154 3148 3151 0
-3156 -1202 0
-3156 -1203 0
3156 1202 1203 0
-3157 -3155 0
-3157 -3156 0
3157 3155 3156 0
-3158 -3154 0
-3158 3157 0
3158 3154 -3157 0
-3161 -3155 0
-3161 -3158 0
3161 3155 3158 0
-3163 -1203 0
-3163 -1204 0
3163 1203 1204 0
-3164 -3162 0
-3164 -3163 0
3164 3162 3163 0
-3165 -3161 0
-3165 3164 0
3165 3161 -3164 0
-3168 -3162 0
-3168 -3165 0
3168 3162 3165 0
-3170 -1204 0
-3170 -1205 0
3170 1204 1205 0
-3171 -3169 0
-3171 -3170 0
3171 3169 3170 0
-3172 -3168 0
-3172 3171 0
3172 3168 -3171 0
-3175 -3169 0
-3175 -3172 0
3175 3169 3172 0
-3177 -1205 0
-3177 -1206 0
3177 1205 1206 0
-3178 -3176 0
-3178 -3177 0
3178 3176 3177 0
-3179 -3175 0
-3179 3178 0
3179 3175 -3178 0
-3182 -3176 0
-3182 -3179 0
3182 3176 3179 0
-3184 -1206 0
-3184 -1207 0
3184 1206 1207 0
-3185 -3183 0
-3185 -3184 0
3185 3183 3184 0
-3186 -3182 0
-3186 3185 0
3186 3182 -3185 0
-3189 -3183 0
-3189 -3186 0
3189 3183 3186 0
-3191 -1207 0
-3191 -1208 0
3191 1207 1208 0
-3192 -3190 0
-3192 -3191 0
3192 3190 3191 0
-3193 -3189 0
-3193 3192 0
3193 3189 -3192 0
-3196 -3190 0
-3196 -3193 0
3196 3190 3193 0
-3198 -1208 0
-3198 -1209 0
3198 1208 1209 0
-3199 -3197 0
-3199 -3198 0
3199 3197 3198 0
-3200 -3196 0
-3200 3199 0
3200 3196 -3199 0
-3203 -3197 0
-3203 -3200 0
3203 3197 3200 0
-3205 -1209 0
-3205 -1210 0
3205 1209 1210 0
-3206 -3204 0
-3206 -3205 0
3206 3204 3205 0
-3207 -3203 0
-3207 3206 0
3207 3203 -3206 0
-3210 -3204 0
-3210 -3207 0
3210 3204 3207 0
-3212 -1210 0
-3212 -1211 0
3212 1210 1211 0
-3213 -3211 0
-3213 -3212 0
3213 3211 3212 0
-3214 -3210 0
-3214 3213 0
3214 3210 -3213 0
-3217 -3211 0
-3217 -3214 0
3217 3211 3214 0
-3219 -1211 0
-3219 -1212 0
3219 1211 1212 0
-3220 -3218 0
-3220 -3219 0
3220 3218 3219 0
-3221 -3217 0
-3221 3220 0
3221 3217 -3220 0
-3224 -3218 0
-3224 -3221 0
3224 3218 3221 0
-3226 -1212 0
-3226 -1213 0
3226 1212 1213 0
-3227 -3225 0
-3227 -3226 0
3227 3225 3226 0
-3228 -3224 0
-3228 3227 0
3228 3224 -3227 0
-3231 -3225 0
-3231 -3228 0
3231 3225 3228 0
-3233 -1213 0
-3233 -1214 0
3233 1213 1214 0
-3234 -3232 0
-3234 -3233 0
3234 3232 3233 0
-3235 -3231 0
-3235 3234 0
3235 3231 -3234 0
-3238 -3232 0
-3238 -3235 0
3238 3232 3235 0
-3240 -1214 0
-3240 -1215 0
3240 1214 1215 0
-3241 -3239 0
-3241 -3240 0
3241 3239 3240 0
-3242 -3238 0
-3242 3241 0
3242 3238 -3241 0
-3245 -3239 0
-3245 -3242 0
3245 3239 3242 0
-3247 -1215 0
-3247 -1216 0
3247 1215 1216 0
-3248 -3246 0
-3248 -3247 0
3248 3246 3247 0
-3249 -3245 0
-3249 3248 0
3249 3245 -3248 0
-3252 -3246 0
-3252 -3249 0
3252 3246 3249 0
-3254 -1216 0
-3254 -1217 0
3254 1216 1217 0
-3255 -3253 0
-3255 -3254 0
3255 3253 3254 0
-3256 -3252 0
-3256 3255 0
3256 3252 -3255 0
-3259 -3253 0
-3259 -3256 0
3259 3253 3256 0
-3261 -1217 0
-3261 -1218 0
3261 1217 1218 0
-3262 -3260 0
-3262 -3261 0
3262 3260 3261 0
-3263 -3259 0
-3263 3262 0
3263 3259 -3262 0
-3266 -3260 0
-3266 -3263 0
3266 3260 3263 0
-3268 -1218 0
-3268 -1219 0
3268 1218 1219 0
-3269 -3267 0
-3269 -3268 0
3269 3267 3268 0
-3270 -3266 0
-3270 3269 0
3270 3266 -3269 0
-3273 -3267 0
-3273 -3270 0
3273 3267 3270 0
-3275 -1219 0
-3275 -1220 0
3275 1219 1220 0
-3276 -3274 0
-3276 -3275 0
3276 3274 3275 0
-3277 -3273 0
-3277 3276 0
3277 3273 -3276 0
-3280 -3274 0
-3280 -3277 0
3280 3274 3277 0
-3282 -1220 0
-3282 -1221 0
3282 1220 1221 0
-3283 -3281 0
-3283 -3282 0
3283 3281 3282 0
-3284 -3280 0
-3284 3283 0
3284 3280 -3283 0
-3287 -3281 0
-3287 -3284 0
3287 3281 3284 0
-3289 -1221 0
-3289 -1222 0
3289 1221 1222 0
-3290 -3288 0
-3290 -3289 0
3290 3288 3289 0
-3291 -3287 0
-3291 3290 0
3291 3287 -3290 0
-3294 -3288 0
-3294 -3291 0
3294 3288 3291 0
-3296 -1222 0
-3296 -1223 0
3296 1222 1223 0
-3297 -3295 0
-3297 -3296 0
3297 3295 3296 0
-3298 -3294 0
-3298 3297 0
3298 3294 -3297 0
-3301 -3295 0
-3301 -3298 0
3301 3295 3298 0
-3303 -1223 0
-3303 -1224 0
3303 1223 1224 0
-3304 -3302 0
-3304 -3303 0
3304 3302 3303 0
-3305 -3301 0
-3305 3304 0
3305 3301 -3304 0
-3308 -3302 0
-3308 -3305 0
3308 3302 3305 0
-3310 -1224 0
-3310 -1225 0
3310 1224 1225 0
-3311 -3309 0
-3311 -3310 0
3311 3309 3310 0
-3312 -3308 0
-3312 3311 0
3312 3308 -3311 0
-3315 -3309 0
-3315 -3312 0
3315 3309 3312 0
-3317 -1225 0
-3317 -1226 0
3317 1225 1226 0
-3318 -3316 0
-3318 -3317 0
3318 3316 3317 0
-3319 -3315 0
-3319 3318 0
3319 3315 -3318 0
-3322 -3316 0
-3322 -3319 0
3322 3316 3319 0
-3324 -1226 0
-3324 -1227 0
3324 1226 1227 0
-3325 -3323 0
-3325 -3324 0
3325 3323 3324 0
-3326 -3322 0
-3326 3325 0
3326 3322 -3325 0
-3329 -3323 0
-3329 -3326 0
3329 3323 3326 0
-3331 -1227 0
-3331 -1228 0
3331 1227 1228 0
-3332 -3330 0
-3332 -3331 0
3332 3330 3331 0
-3333 -3329 0
-3333 3332 0
3333 3329 -3332 0
-3336 -3330 0
-3336 -3333 0
3336 3330 3333 0
-3338 -1228 0
-3338 -1229 0
3338 1228 1229 0
-3339 -3337 0
-3339 -3338 0
3339 3337 3338 0
-3340 -3336 0
-3340 3339 0
3340 3336 -3339 0
-3343 -3337 0
-3343 -3340 0
3343 3337 3340 0
-3345 -1229 0
-3345 -1230 0
3345 1229 1230 0
-3346 -3344 0
-3346 -3345 0
3346 3344 3345 0
-3347 -3343 0
-3347 3346 0
3347 3343 -3346 0
-3350 -3344 0
-3350 -3347 0
3350 3344 3347 0
-3352 -1230 0
-3352 -1231 0
3352 1230 1231 0
-3353 -3351 0
-3353 -3352 0
3353 3351 3352 0
-3354 -3350 0
-3354 3353 0
3354 3350 -3353 0
-3357 -3351 0
-3357 -3354 0
3357 3351 3354 0
-3359 -1231 0
-3359 -1232 0
3359 1231 1232 0
-3360 -3358 0
-3360 -3359 0
3360 3358 3359 0
-3361 -3357 0
-3361 3360 0
3361 3357 -3360 0
-3364 -3358 0
-3364 -3361 0
3364 3358 3361 0
-3366 -1232 0
-3366 -1233 0
3366 1232 1233 0
-3367 -3365 0
-3367 -3366 0
3367 3365 3366 0
-3368 -3364 0
-3368 3367 0
3368 3364 -3367 0
-3371 -3365 0
-3371 -3368 0
3371 3365 3368 0
-3373 -1233 0
-3373 -1234 0
3373 1233 1234 0
-3374 -3372 0
-3374 -3373 0
3374 3372 3373 0
-3375 -3371 0
-3375 3374 0
3375 3371 -3374 0
-3378 -3372 0
-3378 -3375 0
3378 3372 3375 0
-3380 -1234 0
-3380 -1235 0
3380 1234 1235 0
-3381 -3379 0
-3381 -3380 0
3381 3379 3380 0
-3382 -3378 0
-3382 3381 0
3382 3378 -3381 0
-3385 -3379 0
-3385 -3382 0
3385 3379 3382 0
-3387 -1235 0
-3387 -1236 0
3387 1235 1236 0
-3388 -3386 0
-3388 -3387 0
3388 3386 3387 0
-3389 -3385 0
-3389 3388 0
3389 3385 -3388 0
-3392 -3386 0
-3392 -3389 0
3392 3386 3389 0
-3394 -1236 0
-3394 -1237 0
3394 1236 1237 0
-3395 -3393 0
-3395 -3394 0
3395 3393 3394 0
-3396 -3392 0
-3396 3395 0
3396 3392 -3395 0
-3399 -3393 0
-3399 -3396 0
3399 3393 3396 0
-3401 -1237 0
-3401 -1238 0
3401 1237 1238 0
-3402 -3400 0
-3402 -3401 0
3402 3400 3401 0
-3403 -3399 0
-3403 3402 0
3403 3399 -3402 0
-3406 -3400 0
-3406 -3403 0
3406 3400 3403 0
-3408 -1238 0
-3408 -1239 0
3408 1238 1239 0
-3409 -3407 0
-3409 -3408 0
3409 3407 3408 0
-3410 -3406 0
-3410 3409 0
3410 3406 -3409 0
-3413 -3407 0
-3413 -3410 0
3413 3407 3410 0
-3415 -1239 0
-3415 -1240 0
3415 1239 1240 0
-3416 -3414 0
-3416 -3415 0
3416 3414 3415 0
-3417 -3413 0
-3417 3416 0
3417 3413 -3416 0
-3420 -3414 0
-3420 -3417 0
3420 3414 3417 0
-3422 -1240 0
-3422 -1241 0
3422 1240 1241 0
-3423 -3421 0
-3423 -3422 0
3423 3421 3422 0
-3424 -3420 0
-3424 3423 0
3424 3420 -3423 0
-3427 -3421 0
-3427 -3424 0
3427 3421 3424 0
-3429 -1241 0
-3429 -1242 0
3429 1241 1242 0
-3430 -3428 0
-3430 -3429 0
3430 3428 3429 0
-3431 -3427 0
-3431 3430 0
3431 3427 -3430 0
-3434 -3428 0
-3434 -3431 0
3434 3428 3431 0
-3436 -1242 0
-3436 -1243 0
3436 1242 1243 0
-3437 -3435 0
-3437 -3436 0
3437 3435 3436 0
-3438 -3434 0
-3438 3437 0
3438 3434 -3437 0
-3441 -3435 0
-3441 -3438 0
3441 3435 3438 0
-3443 -1243 0
-3443 -1244 0
3443 1243 1244 0
-3444 -3442 0
-3444 -3443 0
3444 3442 3443 0
-3445 -3441 0
-3445 3444 0
3445 3441 -3444 0
-3448 -3442 0
-3448 -3445 0
3448 3442 3445 0
-3450 -1244 0
-3450 -1245 0
3450 1244 1245 0
-3451 -3449 0
-3451 -3450 0
3451 3449 3450 0
-3452 -3448 0
-3452 3451 0
3452 3448 -3451 0
-3455 -3449 0
-3455 -3452 0
3455 3449 3452 0
-3457 -1245 0
-3457 -1246 0
3457 1245 1246 0
-3458 -3456 0
-3458 -3457 0
3458 3456 3457 0
-3459 -3455 0
-3459 3458 0
3459 3455 -3458 0
-3462 -3456 0
-3462 -3459 0
3462 3456 3459 0
-3464 -1246 0
-3464 -1247 0
3464 1246 1247 0
-3465 -3463 0
-3465 -3464 0
3465 3463 3464 0
-3466 -3462 0
-3466 3465 0
3466 3462 -3465 0
-3469 -3463 0
-3469 -3466 0
3469 3463 3466 0
-3471 -1247 0
-3471 -1248 0
3471 1247 1248 0
-3472 -3470 0
-3472 -3471 0
3472 3470 3471 0
-3473 -3469 0
-3473 3472 0
3473 3469 -3472 0
-3476 -3470 0
-3476 -3473 0
3476 3470 3473 0
-3478 -1248 0
-3478 -1249 0
3478 1248 1249 0
-3479 -3477 0
-3479 -3478 0
3479 3477 3478 0
-3480 -3476 0
-3480 3479 0
3480 3476 -3479 0
-3483 -3477 0
-3483 -3480 0
3483 3477 3480 0
-3485 -1249 0
-3485 -1250 0
3485 1249 1250 0
-3486 -3484 0
-3486 -3485 0
3486 3484 3485 0
-3487 -3483 0
-3487 3486 0
3487 3483 -3486 0
-3490 -3484 0
-3490 -3487 0
3490 3484 3487 0
-3492 -1250 0
-3492 -1251 0
3492 1250 1251 0
-3493 -3491 0
-3493 -3492 0
3493 3491 3492 0
-3494 -3490 0
-3494 3493 0
3494 3490 -3493 0
-3497 -3491 0
-3497 -3494 0
3497 3491 3494 0
-3498 1251 0
-3498 1252 0
3498 -1251 -1252 0
-3499 -1251 0
-3499 -1252 0
3499 1251 1252 0
-3500 -3498 0
-3500 -3499 0
3500 3498 3499 0
-3501 -3497 0
-3501 3500 0
3501 3497 -3500 0
-3502 3497 0
-3502 -3500 0
3502 -3497 3500 0
-3503 -3501 0
-3503 -3502 0
3503 3501 3502 0
-3495 3490 0
-3495 -3493 0
3495 -3490 3493 0
-3496 -3494 0
-3496 -3495 0
3496 3494 3495 0
-3488 3483 0
-3488 -3486 0
3488 -3483 3486 0
-3489 -3487 0
-3489 -3488 0
3489 3487 3488 0
-3481 3476 0
-3481 -3479 0
3481 -3476 3479 0
-3482 -3480 0
-3482 -3481 0
3482 3480 3481 0
-3474 3469 0
-3474 -3472 0
3474 -3469 3472 0
-3475 -3473 0
-3475 -3474 0
3475 3473 3474 0
-3467 3462 0
-3467 -3465 0
3467 -3462 3465 0
-3468 -3466 0
-3468 -3467 0
3468 3466 3467 0
-3460 3455 0
-3460 -3458 0
3460 -3455 3458 0
-3461 -3459 0
-3461 -3460 0
3461 3459 3460 0
-3453 3448 0
-3453 -3451 0
3453 -3448 3451 0
-3454 -3452 0
-3454 -3453 0
3454 3452 3453 0
-3446 3441 0
-3446 -3444 0
3446 -3441 3444 0
-3447 -3445 0
-3447 -3446 0
3447 3445 3446 0
-3439 3434 0
-3439 -3437 0
3439 -3434 3437 0
-3440 -3438 0
-3440 -3439 0
3440 3438 3439 0
-3432 3427 0
-3432 -3430 0
3432 -3427 3430 0
-3433 -3431 0
-3433 -3432 0
3433 3431 3432 0
-3425 3420 0
-3425 -3423 0
3425 -3420 3423 0
-3426 -3424 0
-3426 -3425 0
3426 3424 3425 0
-3418 3413 0
-3418 -3416 0
3418 -3413 3416 0
-3419 -3417 0
-3419 -3418 0
3419 3417 3418 0
-3411 3406 0
-3411 -3409 0
3411 -3406 3409 0
-3412 -3410 0
-3412 -3411 0
3412 3410 3411 0
-3404 3399 0
-3404 -3402 0
3404 -3399 3402 0
-3405 -3403 0
-3405 -3404 0
3405 3403 3404 0
-3397 3392 0
-3397 -3395 0
3397 -3392 3395 0
-3398 -3396 0
-3398 -3397 0
3398 3396 3397 0
-3390 3385 0
-3390 -3388 0
3390 -3385 3388 0
-3391 -3389 0
-3391 -3390 0
3391 3389 3390 0
-3383 3378 0
-3383 -3381 0
3383 -3378 3381 0
-3384 -3382 0
-3384 -3383 0
3384 3382 3383 0
-3376 3371 0
-3376 -3374 0
3376 -3371 3374 0
-3377 -3375 0
-3377 -3376 0
3377 3375 3376 0
-3369 3364 0
-3369 -3367 0
3369 -3364 3367 0
-3370 -3368 0
-3370 -3369 0
3370 3368 3369 0
-3362 3357 0
-3362 -3360 0
3362 -3357 3360 0
-3363 -3361 0
-3363 -3362 0
3363 3361 3362 0
-3355 3350 0
-3355 -3353 0
3355 -3350 3353 0
-3356 -3354 0
-3356 -3355 0
3356 3354 3355 0
-3348 3343 0
-3348 -3346 0
3348 -3343 3346 0
-3349 -3347 0
-3349 -3348 0
3349 3347 3348 0
-3341 3336 0
-3341 -3339 0
3341 -3336 3339 0
-3342 -3340 0
-3342 -3341 0
3342 3340 3341 0
-3334 3329 0
-3334 -3332 0
3334 -3329 3332 0
-3335 -3333 0
-3335 -3334 0
3335 3333 3334 0
-3327 3322 0
-3327 -3325 0
3327 -3322 3325 0
-3328 -3326 0
-3328 -3327 0
3328 3326 3327 0
-3320 3315 0
-3320 -3318 0
3320 -3315 3318 0
-3321 -3319 0
-3321 -3320 0
3321 3319 3320 0
-3313 3308 0
-3313 -3311 0
3313 -3308 3311 0
-3314 -3312 0
-3314 -3313 0
3314 3312 3313 0
-3306 3301 0
-3306 -3304 0
3306 -3301 3304 0
-3307 -3305 0
-3307 -3306 0
3307 3305 3306 0
-3299 3294 0
-3299 -3297 0
3299 -3294 3297 0
-3300 -3298 0
-3300 -3299 0
3300 3298 3299 0
-3292 3287 0
-3292 -3290 0
3292 -3287 3290 0
-3293 -3291 0
-3293 -3292 0
3293 3291 3292 0
-3285 3280 0
-3285 -3283 0
3285 -3280 3283 0
-3286 -3284 0
-3286 -3285 0
3286 3284 3285 0
-3278 3273 0
-3278 -3276 0
3278 -3273 3276 0
-3279 -3277 0
-3279 -3278 0
3279 3277 3278 0
-3271 3266 0
-3271 -3269 0
3271 -3266 3269 0
-3272 -3270 0
-3272 -3271 0
3272 3270 3271 0
-3264 3259 0
-3264 -3262 0
3264 -3259 3262 0
-3265 -3263 0
-3265 -3264 0
3265 3263 3264 0
-3257 3252 0
-3257 -3255 0
3257 -3252 3255 0
-3258 -3256 0
-3258 -3257 0
3258 3256 3257 0
-3250 3245 0
-3250 -3248 0
3250 -3245 3248 0
-3251 -3249 0
-3251 -3250 0
3251 3249 3250 0
-3243 3238 0
-3243 -3241 0
3243 -3238 3241 0
-3244 -3242 0
-3244 -3243 0
3244 3242 3243 0
-3236 3231 0
-3236 -3234 0
3236 -3231 3234 0
-3237 -3235 0
-3237 -3236 0
3237 3235 3236 0
-3229 3224 0
-3229 -3227 0
3229 -3224 3227 0
-3230 -3228 0
-3230 -3229 0
3230 3228 3229 0
-3222 3217 0
-3222 -3220 0
3222 -3217 3220 0
-3223 -3221 0
-3223 -3222 0
3223 3221 3222 0
-3215 3210 0
-3215 -3213 0
3215 -3210 3213 0
-3216 -3214 0
-3216 -3215 0
3216 3214 3215 0
-3208 3203 0
-3208 -3206 0
3208 -3203 3206 0
-3209 -3207 0
-3209 -3208 0
3209 3207 3208 0
-3201 3196 0
-3201 -3199 0
3201 -3196 3199 0
-3202 -3200 0
-3202 -3201 0
3202 3200 3201 0
-3194 3189 0
-3194 -3192 0
3194 -3189 3192 0
-3195 -3193 0
-3195 -3194 0
3195 3193 3194 0
-3187 3182 0
-3187 -3185 0
3187 -3182 3185 0
-3188 -3186 0
-3188 -3187 0
3188 3186 3187 0
-3180 3175 0
-3180 -3178 0
3180 -3175 3178 0
-3181 -3179 0
-3181 -3180 0
3181 3179 3180 0
-3173 3168 0
-3173 -3171 0
3173 -3168 3171 0
-3174 -3172 0
-3174 -3173 0
3174 3172 3173 0
-3166 3161 0
-3166 -3164 0
3166 -3161 3164 0
-3167 -3165 0
-3167 -3166 0
3167 3165 3166 0
-3159 3154 0
-3159 -3157 0
3159 -3154 3157 0
-3160 -3158 0
-3160 -3159 0
3160 3158 3159 0
-3152 3147 0
-3152 -3150 0
3152 -3147 3150 0
-3153 -3151 0
-3153 -3152 0
3153 3151 3152 0
-3145 3140 0
-3145 -3143 0
3145 -3140 3143 0
-3146 -3144 0
-3146 -3145 0
3146 3144 3145 0
-3138 3133 0
-3138 -3136 0
3138 -3133 3136 0
-3139 -3137 0
-3139 -3138 0
3139 3137 3138 0
-3131 3126 0
-3131 -3129 0
3131 -3126 3129 0
-3132 -3130 0
-3132 -3131 0
3132 3130 3131 0
-3124 3119 0
-3124 -3122 0
3124 -3119 3122 0
-3125 -3123 0
-3125 -3124 0
3125 3123 3124 0
-3117 3112 0
-3117 -3115 0
3117 -3112 3115 0
-3118 -3116 0
-3118 -3117 0
3118 3116 3117 0
-3110 3105 0
-3110 -3108 0
3110 -3105 3108 0
-3111 -3109 0
-3111 -3110 0
3111 3109 3110 0
-3103 3098 0
-3103 -3101 0
3103 -3098 3101 0
-3104 -3102 0
-3104 -3103 0
3104 3102 3103 0
-3096 3091 0
-3096 -3094 0
3096 -3091 3094 0
-3097 -3095 0
-3097 -3096 0
3097 3095 3096 0
-3089 3084 0
-3089 -3087 0
3089 -3084 3087 0
-3090 -3088 0
-3090 -3089 0
3090 3088 3089 0
-3082 3077 0
-3082 -3080 0
3082 -3077 3080 0
-3083 -3081 0
-3083 -3082 0
3083 3081 3082 0
-3075 -3068 0
-3075 -3073 0
3075 3068 3073 0
-3076 -3074 0
-3076 -3075 0
3076 3074 3075 0
-3069 -1189 0
-3069 -1190 0
3069 1189 1190 0
-3070 -3068 0
-3070 -3069 0
3070 3068 3069 0
-3505 1189 0
-3505 3070 0
3505 -1189 -3070 0
-3508 3076 0
-3508 3505 0
3508 -3076 -3505 0
-3511 3083 0
-3511 3508 0
3511 -3083 -3508 0
-3514 3090 0
-3514 3511 0
3514 -3090 -3511 0
-3517 3097 0
-3517 3514 0
3517 -3097 -3514 0
-3520 3104 0
-3520 3517 0
3520 -3104 -3517 0
-3523 3111 0
-3523 3520 0
3523 -3111 -3520 0
-3526 3118 0
-3526 3523 0
3526 -3118 -3523 0
-3529 3125 0
-3529 3526 0
3529 -3125 -3526 0
-3532 3132 0
-3532 3529 0
3532 -3132 -3529 0
-3535 3139 0
-3535 3532 0
3535 -3139 -3532 0
-3538 3146 0
-3538 3535 0
3538 -3146 -3535 0
-3541 3153 0
-3541 3538 0
3541 -3153 -3538 0
-3544 3160 0
-3544 3541 0
3544 -3160 -3541 0
-3547 3167 0
-3547 3544 0
3547 -3167 -3544 0
-3550 3174 0
-3550 3547 0
3550 -3174 -3547 0
-3553 3181 0
-3553 3550 0
3553 -3181 -3550 0
-3556 3188 0
-3556 3553 0
3556 -3188 -3553 0
-3559 3195 0
-3559 3556 0
3559 -3195 -3556 0
-3562 3202 0
-3562 3559 0
3562 -3202 -3559 0
-3565 3209 0
-3565 3562 0
3565 -3209 -3562 0
-3568 3216 0
-3568 3565 0
3568 -3216 -3565 0
-3571 3223 0
-3571 3568 0
3571 -3223 -3568 0
-3574 3230 0
-3574 3571 0
3574 -3230 -3571 0
-3577 3237 0
-3577 3574 0
3577 -3237 -3574 0
-3580 3244 0
-3580 3577 0
3580 -3244 -3577 0
-3583 3251 0
-3583 3580 0
3583 -3251 -3580 0
-3586 3258 0
-3586 3583 0
3586 -3258 -3583 0
-3589 3265 0
-3589 3586 0
3589 -3265 -3586 0
-3592 3272 0
-3592 3589 0
3592 -3272 -3589 0
-3595 3279 0
-3595 3592 0
3595 -3279 -3592 0
-3598 3286 0
-3598 3595 0
3598 -3286 -3595 0
-3601 3293 0
-3601 3598 0
3601 -3293 -3598 0
-3604 3300 0
-3604 3601 0
3604 -3300 -3601 0
-3607 3307 0
-3607 3604 0
3607 -3307 -3604 0
-3610 3314 0
-3610 3607 0
3610 -3314 -3607 0
-3613 3321 0
-3613 3610 0
3613 -3321 -3610 0
-3616 3328 0
-3616 3613 0
3616 -3328 -3613 0
-3619 3335 0
-3619 3616 0
3619 -3335 -3616 0
-3622 3342 0
-3622 3619 0
3622 -3342 -3619 0
-3625 3349 0
-3625 3622 0
3625 -3349 -3622 0
-3628 3356 0
-3628 3625 0
3628 -3356 -3625 0
-3631 3363 0
-3631 3628 0
3631 -3363 -3628 0
-3634 3370 0
-3634 3631 0
3634 -3370 -3631 0
-3637 3377 0
-3637 3634 0
3637 -3377 -3634 0
-3640 3384 0
-3640 3637 0
3640 -3384 -3637 0
-3643 3391 0
-3643 3640 0
3643 -3391 -3640 0
-3646 3398 0
-3646 3643 0
3646 -3398 -3643 0
-3649 3405 0
-3649 3646 0
3649 -3405 -3646 0
-3652 3412 0
-3652 3649 0
3652 -3412 -3649 0
-3655 3419 0
-3655 3652 0
3655 -3419 -3652 0
-3658 3426 0
-3658 3655 0
3658 -3426 -3655 0
-3661 3433 0
-3661 3658 0
3661 -3433 -3658 0
-3664 3440 0
-3664 3661 0
3664 -3440 -3661 0
-3667 3447 0
-3667 3664 0
3667 -3447 -3664 0
-3670 3454 0
-3670 3667 0
3670 -3454 -3667 0
-3673 3461 0
-3673 3670 0
3673 -3461 -3670 0
-3676 3468 0
-3676 3673 0
3676 -3468 -3673 0
-3679 3475 0
-3679 3676 0
3679 -3475 -3676 0
-3682 3482 0
-3682 3679 0
3682 -3482 -3679 0
-3685 3489 0
-3685 3682 0
3685 -3489 -3682 0
-3688 3496 0
-3688 3685 0
3688 -3496 -3685 0
-3691 3503 0
-3691 3688 0
3691 -3503 -3688 0
-3692 -3503 0
-3692 -3688 0
3692 3503 3688 0
-3693 -3691 0
-3693 -3692 0
3693 3691 3692 0
-3880 3066 0
-3880 -3693 0
3880 -3066 3693 0
-3881 -3066 0
-3881 3693 0
3881 3066 -3693 0
-3882 -3880 0
-3882 -3881 0
3882 3880 3881 0
3065 -16635 0
-3065 16635 0
-3689 -3496 0
-3689 -3685 0
3689 3496 3685 0
-3690 -3688 0
-3690 -3689 0
3690 3688 3689 0
-3877 3065 0
-3877 -3690 0
3877 -3065 3690 0
-3878 -3065 0
-3878 3690 0
3878 3065 -3690 0
-3879 -3877 0
-3879 -3878 0
3879 3877 3878 0
3064 -16634 0
-3064 16634 0
-3686 -3489 0
-3686 -3682 0
3686 3489 3682 0
-3687 -3685 0
-3687 -3686 0
3687 3685 3686 0
-3874 3064 0
-3874 -3687 0
3874 -3064 3687 0
-3875 -3064 0
-3875 3687 0
3875 3064 -3687 0
-3876 -3874 0
-3876 -3875 0
3876 3874 3875 0
3063 -16633 0
-3063 16633 0
-3683 -3482 0
-3683 -3679 0
3683 3482 3679 0
-3684 -3682 0
-3684 -3683 0
3684 3682 3683 0
-3871 3063 0
-3871 -3684 0
3871 -3063 3684 0
-3872 -3063 0
-3872 3684 0
3872 3063 -3684 0
-3873 -3871 0
-3873 -3872 0
3873 3871 3872 0
3062 -16632 0
-3062 16632 0
-3680 -3475 0
-3680 -3676 0
3680 3475 3676 0
-3681 -3679 0
-3681 -3680 0
3681 3679 3680 0
-3868 3062 0
-3868 -3681 0
3868 -3062 3681 0
-3869 -3062 0
-3869 3681 0
3869 3062 -3681 0
-3870 -3868 0
-3870 -3869 0
3870 3868 3869 0
3061 -16631 0
-3061 16631 0
-3677 -3468 0
-3677 -3673 0
3677 3468 3673 0
-3678 -3676 0
-3678 -3677 0
3678 3676 3677 0
-3865 3061 0
-3865 -3678 0
3865 -3061 3678 0
-3866 -3061 0
-3866 3678 0
3866 3061 -3678 0
-3867 -3865 0
-3867 -3866 0
3867 3865 3866 0
3060 -16630 0
-3060 16630 0
-3674 -3461 0
-3674 -3670 0
3674 3461 3670 0
-3675 -3673 0
-3675 -3674 0
3675 3673 3674 0
-3862 3060 0
-3862 -3675 0
3862 -3060 3675 0
-3863 -3060 0
-3863 3675 0
3863 3060 -3675 0
-3864 -3862 0
-3864 -3863 0
3864 3862 3863 0
3059 -16629 0
-3059 16629 0
-3671 -3454 0
-3671 -3667 0
3671 3454 3667 0
-3672 -3670 0
-3672 -3671 0
3672 3670 3671 0
-3859 3059 0
-3859 -3672 0
3859 -3059 3672 0
-3860 -3059 0
-3860 3672 0
3860 3059 -3672 0
-3861 -3859 0
-3861 -3860 0
3861 3859 3860 0
3058 -16628 0
-3058 16628 0
-3668 -3447 0
-3668 -3664 0
3668 3447 3664 0
-3669 -3667 0
-3669 -3668 0
3669 3667 3668 0
-3856 3058 0
-3856 -3669 0
3856 -3058 3669 0
-3857 -3058 0
-3857 3669 0
3857 3058 -3669 0
-3858 -3856 0
-3858 -3857 0
3858 3856 3857 0
3057 -16627 0
-3057 16627 0
-3665 -3440 0
-3665 -3661 0
3665 3440 3661 0
-3666 -3664 0
-3666 -3665 0
3666 3664 3665 0
-3853 3057 0
-3853 -3666 0
3853 -3057 3666 0
-3854 -3057 0
-3854 3666 0
3854 3057 -3666 0
-3855 -3853 0
-3855 -3854 0
3855 3853 3854 0
3056 -16626 0
-3056 16626 0
-3662 -3433 0
-3662 -3658 0
3662 3433 3658 0
-3663 -3661 0
-3663 -3662 0
3663 3661 3662 0
-3850 3056 0
-3850 -3663 0
3850 -3056 3663 0
-3851 -3056 0
-3851 3663 0
3851 3056 -3663 0
-3852 -3850 0
-3852 -3851 0
3852 3850 3851 0
3055 -16625 0
-3055 16625 0
-3659 -3426 0
-3659 -3655 0
3659 3426 3655 0
-3660 -3658 0
-3660 -3659 0
3660 3658 3659 0
-3847 3055 0
-3847 -3660 0
3847 -3055 3660 0
-3848 -3055 0
-3848 3660 0
3848 3055 -3660 0
-3849 -3847 0
-3849 -3848 0
3849 3847 3848 0
3054 -16624 0
-3054 16624 0
-3656 -3419 0
-3656 -3652 0
3656 3419 3652 0
-3657 -3655 0
-3657 -3656 0
3657 3655 3656 0
-3844 3054 0
-3844 -3657 0
3844 -3054 3657 0
-3845 -3054 0
-3845 3657 0
3845 3054 -3657 0
-3846 -3844 0
-3846 -3845 0
3846 3844 3845 0
3053 -16623 0
-3053 16623 0
-3653 -3412 0
-3653 -3649 0
3653 3412 3649 0
-3654 -3652 0
-3654 -3653 0
3654 3652 3653 0
-3841 3053 0
-3841 -3654 0
3841 -3053 3654 0
-3842 -3053 0
-3842 3654 0
3842 3053 -3654 0
-3843 -3841 0
-3843 -3842 0
3843 3841 3842 0
3052 -16622 0
-3052 16622 0
-3650 -3405 0
-3650 -3646 0
3650 3405 3646 0
-3651 -3649 0
-3651 -3650 0
3651 3649 3650 0
-3838 3052 0
-3838 -3651 0
3838 -3052 3651 0
-3839 -3052 0
-3839 3651 0
3839 3052 -3651 0
-3840 -3838 0
-3840 -3839 0
3840 3838 3839 0
3051 -16621 0
-3051 16621 0
-3647 -3398 0
-3647 -3643 0
3647 3398 3643 0
-3648 -3646 0
-3648 -3647 0
3648 3646 3647 0
-3835 3051 0
-3835 -3648 0
3835 -3051 3648 0
-3836 -3051 0
-3836 3648 0
3836 3051 -3648 0
-3837 -3835 0
-3837 -3836 0
3837 3835 3836 0
3050 -16620 0
-3050 16620 0
-3644 -3391 0
-3644 -3640 0
3644 3391 3640 0
-3645 -3643 0
-3645 -3644 0
3645 3643 3644 0
-3832 3050 0
-3832 -3645 0
3832 -3050 3645 0
-3833 -3050 0
-3833 3645 0
3833 3050 -3645 0
-3834 -3832 0
-3834 -3833 0
3834 3832 3833 0
3049 -16619 0
-3049 16619 0
-3641 -3384 0
-3641 -3637 0
3641 3384 3637 0
-3642 -3640 0
-3642 -3641 0
3642 3640 3641 0
-3829 3049 0
-3829 -3642 0
3829 -3049 3642 0
-3830 -3049 0
-3830 3642 0
3830 3049 -3642 0
-3831 -3829 0
-3831 -3830 0
3831 3829 3830 0
3048 -16618 0
-3048 16618 0
-3638 -3377 0
-3638 -3634 0
3638 3377 3634 0
-3639 -3637 0
-3639 -3638 0
3639 3637 3638 0
-3826 3048 0
-3826 -3639 0
3826 -3048 3639 0
-3827 -3048 0
-3827 3639 0
3827 3048 -3639 0
-3828 -3826 0
-3828 -3827 0
3828 3826 3827 0
3047 -16617 0
-3047 16617 0
-3635 -3370 0
-3635 -3631 0
3635 3370 3631 0
-3636 -3634 0
-3636 -3635 0
3636 3634 3635 0
-3823 3047 0
-3823 -3636 0
3823 -3047 3636 0
-3824 -3047 0
-3824 3636 0
3824 3047 -3636 0
-3825 -3823 0
-3825 -3824 0
3825 3823 3824 0
3046 -16616 0
-3046 16616 0
-3632 -3363 0
-3632 -3628 0
3632 3363 3628 0
-3633 -3631 0
-3633 -3632 0
3633 3631 3632 0
-3820 3046 0
-3820 -3633 0
3820 -3046 3633 0
-3821 -3046 0
-3821 3633 0
3821 3046 -3633 0
-3822 -3820 0
-3822 -3821 0
3822 3820 3821 0
3045 -16615 0
-3045 16615 0
-3629 -3356 0
-3629 -3625 0
3629 3356 3625 0
-3630 -3628 0
-3630 -3629 0
3630 3628 3629 0
-3817 3045 0
-3817 -3630 0
3817 -3045 3630 0
-3818 -3045 0
-3818 3630 0
3818 3045 -3630 0
-3819 -3817 0
-3819 -3818 0
3819 3817 3818 0
3044 -16614 0
-3044 16614 0
-3626 -3349 0
-3626 -3622 0
3626 3349 3622 0
-3627 -3625 0
-3627 -3626 0
3627 3625 3626 0
-3814 3044 0
-3814 -3627 0
3814 -3044 3627 0
-3815 -3044 0
-3815 3627 0
3815 3044 -3627 0
-3816 -3814 0
-3816 -3815 0
3816 3814 3815 0
3043 -16613 0
-3043 16613 0
-3623 -3342 0
-3623 -3619 0
3623 3342 3619 0
-3624 -3622 0
-3624 -3623 0
3624 3622 3623 0
-3811 3043 0
-3811 -3624 0
3811 -3043 3624 0
-3812 -3043 0
-3812 3624 0
3812 3043 -3624 0
-3813 -3811 0
-3813 -3812 0
3813 3811 3812 0
3042 -16612 0
-3042 16612 0
-3620 -3335 0
-3620 -3616 0
3620 3335 3616 0
-3621 -3619 0
-3621 -3620 0
3621 3619 3620 0
-3808 3042 0
-3808 -3621 0
3808 -3042 3621 0
-3809 -3042 0
-3809 3621 0
3809 3042 -3621 0
-3810 -3808 0
-3810 -3809 0
3810 3808 3809 0
3041 -16611 0
-3041 16611 0
-3617 -3328 0
-3617 -3613 0
3617 3328 3613 0
-3618 -3616 0
-3618 -3617 0
3618 3616 3617 0
-3805 3041 0
-3805 -3618 0
3805 -3041 3618 0
-3806 -3041 0
-3806 3618 0
3806 3041 -3618 0
-3807 -3805 0
-3807 -3806 0
3807 3805 3806 0
3040 -16610 0
-3040 16610 0
-3614 -3321 0
-3614 -3610 0
3614 3321 3610 0
-3615 -3613 0
-3615 -3614 0
3615 3613 3614 0
-3802 3040 0
-3802 -3615 0
3802 -3040 3615 0
-3803 -3040 0
-3803 3615 0
3803 3040 -3615 0
-3804 -3802 0
-3804 -3803 0
3804 3802 3803 0
3039 -16609 0
-3039 16609 0
-3611 -3314 0
-3611 -3607 0
3611 3314 3607 0
-3612 -3610 0
-3612 -3611 0
3612 3610 3611 0
-3799 3039 0
-3799 -3612 0
3799 -3039 3612 0
-3800 -3039 0
-3800 3612 0
3800 3039 -3612 0
-3801 -3799 0
-3801 -3800 0
3801 3799 3800 0
3038 -16608 0
-3038 16608 0
-3608 -3307 0
-3608 -3604 0
3608 3307 3604 0
-3609 -3607 0
-3609 -3608 0
3609 3607 3608 0
-3796 3038 0
-3796 -3609 0
3796 -3038 3609 0
-3797 -3038 0
-3797 3609 0
3797 3038 -3609 0
-3798 -3796 0
-3798 -3797 0
3798 3796 3797 0
3037 -16607 0
-3037 16607 0
-3605 -3300 0
-3605 -3601 0
3605 3300 3601 0
-3606 -3604 0
-3606 -3605 0
3606 3604 3605 0
-3793 3037 0
-3793 -3606 0
3793 -3037 3606 0
-3794 -3037 0
-3794 3606 0
3794 3037 -3606 0
-3795 -3793 0
-3795 -3794 0
3795 3793 3794 0
3036 -16606 0
-3036 16606 0
-3602 -3293 0
-3602 -3598 0
3602 3293 3598 0
-3603 -3601 0
-3603 -3602 0
3603 3601 3602 0
-3790 3036 0
-3790 -3603 0
3790 -3036 3603 0
-3791 -3036 0
-3791 3603 0
3791 3036 -3603 0
-3792 -3790 0
-3792 -3791 0
3792 3790 3791 0
3035 -16605 0
-3035 16605 0
-3599 -3286 0
-3599 -3595 0
3599 3286 3595 0
-3600 -3598 0
-3600 -3599 0
3600 3598 3599 0
-3787 3035 0
-3787 -3600 0
3787 -3035 3600 0
-3788 -3035 0
-3788 3600 0
3788 3035 -3600 0
-3789 -3787 0
-3789 -3788 0
3789 3787 3788 0
3034 -16604 0
-3034 16604 0
-3596 -3279 0
-3596 -3592 0
3596 3279 3592 0
-3597 -3595 0
-3597 -3596 0
3597 3595 3596 0
-3784 3034 0
-3784 -3597 0
3784 -3034 3597 0
-3785 -3034 0
-3785 3597 0
3785 3034 -3597 0
-3786 -3784 0
-3786 -3785 0
3786 3784 3785 0
3033 -16603 0
-3033 16603 0
-3593 -3272 0
-3593 -3589 0
3593 3272 3589 0
-3594 -3592 0
-3594 -3593 0
3594 3592 3593 0
-3781 3033 0
-3781 -3594 0
3781 -3033 3594 0
-3782 -3033 0
-3782 3594 0
3782 3033 -3594 0
-3783 -3781 0
-3783 -3782 0
3783 3781 3782 0
3032 -16602 0
-3032 16602 0
-3590 -3265 0
-3590 -3586 0
3590 3265 3586 0
-3591 -3589 0
-3591 -3590 0
3591 3589 3590 0
-3778 3032 0
-3778 -3591 0
3778 -3032 3591 0
-3779 -3032 0
-3779 3591 0
3779 3032 -3591 0
-3780 -3778 0
-3780 -3779 0
3780 3778 3779 0
3031 -16601 0
-3031 16601 0
-3587 -3258 0
-3587 -3583 0
3587 3258 3583 0
-3588 -3586 0
-3588 -3587 0
3588 3586 3587 0
-3775 3031 0
-3775 -3588 0
3775 -3031 3588 0
-3776 -3031 0
-3776 3588 0
3776 3031 -3588 0
-3777 -3775 0
-3777 -3776 0
3777 3775 3776 0
3030 -16600 0
-3030 16600 0
-3584 -3251 0
-3584 -3580 0
3584 3251 3580 0
-3585 -3583 0
-3585 -3584 0
3585 3583 3584 0
-3772 3030 0
-3772 -3585 0
3772 -3030 3585 0
-3773 -3030 0
-3773 3585 0
3773 3030 -3585 0
-3774 -3772 0
-3774 -3773 0
3774 3772 3773 0
3029 -16599 0
-3029 16599 0
-3581 -3244 0
-3581 -3577 0
3581 3244 3577 0
-3582 -3580 0
-3582 -3581 0
3582 3580 3581 0
-3769 3029 0
-3769 -3582 0
3769 -3029 3582 0
-3770 -3029 0
-3770 3582 0
3770 3029 -3582 0
-3771 -3769 0
-3771 -3770 0
3771 3769 3770 0
3028 -16598 0
-3028 16598 0
-3578 -3237 0
-3578 -3574 0
3578 3237 3574 0
-3579 -3577 0
-3579 -3578 0
3579 3577 3578 0
-3766 3028 0
-3766 -3579 0
3766 -3028 3579 0
-3767 -3028 0
-3767 3579 0
3767 3028 -3579 0
-3768 -3766 0
-3768 -3767 0
3768 3766 3767 0
3027 -16597 0
-3027 16597 0
-3575 -3230 0
-3575 -3571 0
3575 3230 3571 0
-3576 -3574 0
-3576 -3575 0
3576 3574 3575 0
-3763 3027 0
-3763 -3576 0
3763 -3027 3576 0
-3764 -3027 0
-3764 3576 0
3764 3027 -3576 0
-3765 -3763 0
-3765 -3764 0
3765 3763 3764 0
3026 -16596 0
-3026 16596 0
-3572 -3223 0
-3572 -3568 0
3572 3223 3568 0
-3573 -3571 0
-3573 -3572 0
3573 3571 3572 0
-3760 3026 0
-3760 -3573 0
3760 -3026 3573 0
-3761 -3026 0
-3761 3573 0
3761 3026 -3573 0
-3762 -3760 0
-3762 -3761 0
3762 3760 3761 0
3025 -16595 0
-3025 16595 0
-3569 -3216 0
-3569 -3565 0
3569 3216 3565 0
-3570 -3568 0
-3570 -3569 0
3570 3568 3569 0
-3757 3025 0
-3757 -3570 0
3757 -3025 3570 0
-3758 -3025 0
-3758 3570 0
3758 3025 -3570 0
-3759 -3757 0
-3759 -3758 0
3759 3757 3758 0
3024 -16594 0
-3024 16594 0
-3566 -3209 0
-3566 -3562 0
3566 3209 3562 0
-3567 -3565 0
-3567 -3566 0
3567 3565 3566 0
-3754 3024 0
-3754 -3567 0
3754 -3024 3567 0
-3755 -3024 0
-3755 3567 0
3755 3024 -3567 0
-3756 -3754 0
-3756 -3755 0
3756 3754 3755 0
3023 -16593 0
-3023 16593 0
-3563 -3202 0
-3563 -3559 0
3563 3202 3559 0
-3564 -3562 0
-3564 -3563 0
3564 3562 3563 0
-3751 3023 0
-3751 -3564 0
3751 -3023 3564 0
-3752 -3023 0
-3752 3564 0
3752 3023 -3564 0
-3753 -3751 0
-3753 -3752 0
3753 3751 3752 0
3022 -16592 0
-3022 16592 0
-3560 -3195 0
-3560 -3556 0
3560 3195 3556 0
-3561 -3559 0
-3561 -3560 0
3561 3559 3560 0
-3748 3022 0
-3748 -3561 0
3748 -3022 3561 0
-3749 -3022 0
-3749 3561 0
3749 3022 -3561 0
-3750 -3748 0
-3750 -3749 0
3750 3748 3749 0
3021 -16591 0
-3021 16591 0
-3557 -3188 0
-3557 -3553 0
3557 3188 3553 0
-3558 -3556 0
-3558 -3557 0
3558 3556 3557 0
-3745 3021 0
-3745 -3558 0
3745 -3021 3558 0
-3746 -3021 0
-3746 3558 0
3746 3021 -3558 0
-3747 -3745 0
-3747 -3746 0
3747 3745 3746 0
3020 -16590 0
-3020 16590 0
-3554 -3181 0
-3554 -3550 0
3554 3181 3550 0
-3555 -3553 0
-3555 -3554 0
3555 3553 3554 0
-3742 3020 0
-3742 -3555 0
3742 -3020 3555 0
-3743 -3020 0
-3743 3555 0
3743 3020 -3555 0
-3744 -3742 0
-3744 -3743 0
3744 3742 3743 0
3019 -16589 0
-3019 16589 0
-3551 -3174 0
-3551 -3547 0
3551 3174 3547 0
-3552 -3550 0
-3552 -3551 0
3552 3550 3551 0
-3739 3019 0
-3739 -3552 0
3739 -3019 3552 0
-3740 -3019 0
-3740 3552 0
3740 3019 -3552 0
-3741 -3739 0
-3741 -3740 0
3741 3739 3740 0
3018 -16588 0
-3018 16588 0
-3548 -3167 0
-3548 -3544 0
3548 3167 3544 0
-3549 -3547 0
-3549 -3548 0
3549 3547 3548 0
-3736 3018 0
-3736 -3549 0
3736 -3018 3549 0
-3737 -3018 0
-3737 3549 0
3737 3018 -3549 0
-3738 -3736 0
-3738 -3737 0
3738 3736 3737 0
3017 -16587 0
-3017 16587 0
-3545 -3160 0
-3545 -3541 0
3545 3160 3541 0
-3546 -3544 0
-3546 -3545 0
3546 3544 3545 0
-3733 3017 0
-3733 -3546 0
3733 -3017 3546 0
-3734 -3017 0
-3734 3546 0
3734 3017 -3546 0
-3735 -3733 0
-3735 -3734 0
3735 3733 3734 0
3016 -16586 0
-3016 16586 0
-3542 -3153 0
-3542 -3538 0
3542 3153 3538 0
-3543 -3541 0
-3543 -3542 0
3543 3541 3542 0
-3730 3016 0
-3730 -3543 0
3730 -3016 3543 0
-3731 -3016 0
-3731 3543 0
3731 3016 -3543 0
-3732 -3730 0
-3732 -3731 0
3732 3730 3731 0
3015 -16585 0
-3015 16585 0
-3539 -3146 0
-3539 -3535 0
3539 3146 3535 0
-3540 -3538 0
-3540 -3539 0
3540 3538 3539 0
-3727 3015 0
-3727 -3540 0
3727 -3015 3540 0
-3728 -3015 0
-3728 3540 0
3728 3015 -3540 0
-3729 -3727 0
-3729 -3728 0
3729 3727 3728 0
3014 -16584 0
-3014 16584 0
-3536 -3139 0
-3536 -3532 0
3536 3139 3532 0
-3537 -3535 0
-3537 -3536 0
3537 3535 3536 0
-3724 3014 0
-3724 -3537 0
3724 -3014 3537 0
-3725 -3014 0
-3725 3537 0
3725 3014 -3537 0
-3726 -3724 0
-3726 -3725 0
3726 3724 3725 0
3013 -16583 0
-3013 16583 0
-3533 -3132 0
-3533 -3529 0
3533 3132 3529 0
-3534 -3532 0
-3534 -3533 0
3534 3532 3533 0
-3721 3013 0
-3721 -3534 0
3721 -3013 3534 0
-3722 -3013 0
-3722 3534 0
3722 3013 -3534 0
-3723 -3721 0
-3723 -3722 0
3723 3721 3722 0
3012 -16582 0
-3012 16582 0
-3530 -3125 0
-3530 -3526 0
3530 3125 3526 0
-3531 -3529 0
-3531 -3530 0
3531 3529 3530 0
-3718 3012 0
-3718 -3531 0
3718 -3012 3531 0
-3719 -3012 0
-3719 3531 0
3719 3012 -3531 0
-3720 -3718 0
-3720 -3719 0
3720 3718 3719 0
3011 -16581 0
-3011 16581 0
-3527 -3118 0
-3527 -3523 0
3527 3118 3523 0
-3528 -3526 0
-3528 -3527 0
3528 3526 3527 0
-3715 3011 0
-3715 -3528 0
3715 -3011 3528 0
-3716 -3011 0
-3716 3528 0
3716 3011 -3528 0
-3717 -3715 0
-3717 -3716 0
3717 3715 3716 0
3010 -16580 0
-3010 16580 0
-3524 -3111 0
-3524 -3520 0
3524 3111 3520 0
-3525 -3523 0
-3525 -3524 0
3525 3523 3524 0
-3712 3010 0
-3712 -3525 0
3712 -3010 3525 0
-3713 -3010 0
-3713 3525 0
3713 3010 -3525 0
-3714 -3712 0
-3714 -3713 0
3714 3712 3713 0
3009 -16579 0
-3009 16579 0
-3521 -3104 0
-3521 -3517 0
3521 3104 3517 0
-3522 -3520 0
-3522 -3521 0
3522 3520 3521 0
-3709 3009 0
-3709 -3522 0
3709 -3009 3522 0
-3710 -3009 0
-3710 3522 0
3710 3009 -3522 0
-3711 -3709 0
-3711 -3710 0
3711 3709 3710 0
3008 -16578 0
-3008 16578 0
-3518 -3097 0
-3518 -3514 0
3518 3097 3514 0
-3519 -3517 0
-3519 -3518 0
3519 3517 3518 0
-3706 3008 0
-3706 -3519 0
3706 -3008 3519 0
-3707 -3008 0
-3707 3519 0
3707 3008 -3519 0
-3708 -3706 0
-3708 -3707 0
3708 3706 3707 0
3007 -16577 0
-3007 16577 0
-3515 -3090 0
-3515 -3511 0
3515 3090 3511 0
-3516 -3514 0
-3516 -3515 0
3516 3514 3515 0
-3703 3007 0
-3703 -3516 0
3703 -3007 3516 0
-3704 -3007 0
-3704 3516 0
3704 3007 -3516 0
-3705 -3703 0
-3705 -3704 0
3705 3703 3704 0
3006 -16576 0
-3006 16576 0
-3512 -3083 0
-3512 -3508 0
3512 3083 3508 0
-3513 -3511 0
-3513 -3512 0
3513 3511 3512 0
-3700 3006 0
-3700 -3513 0
3700 -3006 3513 0
-3701 -3006 0
-3701 3513 0
3701 3006 -3513 0
-3702 -3700 0
-3702 -3701 0
3702 3700 3701 0
3004 -16574 0
-3004 16574 0
-3506 -1189 0
-3506 -3070 0
3506 1189 3070 0
-3507 -3505 0
-3507 -3506 0
3507 3505 3506 0
-3694 3004 0
-3694 -3507 0
3694 -3004 3507 0
-3695 -3004 0
-3695 3507 0
3695 3004 -3507 0
-3696 -3694 0
-3696 -3695 0
3696 3694 3695 0
3005 -16575 0
-3005 16575 0
-3509 -3076 0
-3509 -3505 0
3509 3076 3505 0
-3510 -3508 0
-3510 -3509 0
3510 3508 3509 0
-3697 3005 0
-3697 -3510 0
3697 -3005 3510 0
-3698 -3005 0
-3698 3510 0
3698 3005 -3510 0
-3699 -3697 0
-3699 -3698 0
3699 3697 3698 0
-3883 3696 0
-3883 3699 0
3883 -3696 -3699 0
-3884 3702 0
-3884 3883 0
3884 -3702 -3883 0
-3885 3705 0
-3885 3884 0
3885 -3705 -3884 0
-3886 3708 0
-3886 3885 0
3886 -3708 -3885 0
-3887 3711 0
-3887 3886 0
3887 -3711 -3886 0
-3888 3714 0
-3888 3887 0
3888 -3714 -3887 0
-3889 3717 0
-3889 3888 0
3889 -3717 -3888 0
-3890 3720 0
-3890 3889 0
3890 -3720 -3889 0
-3891 3723 0
-3891 3890 0
3891 -3723 -3890 0
-3892 3726 0
-3892 3891 0
3892 -3726 -3891 0
-3893 3729 0
-3893 3892 0
3893 -3729 -3892 0
-3894 3732 0
-3894 3893 0
3894 -3732 -3893 0
-3895 3735 0
-3895 3894 0
3895 -3735 -3894 0
-3896 3738 0
-3896 3895 0
3896 -3738 -3895 0
-3897 3741 0
-3897 3896 0
3897 -3741 -3896 0
-3898 3744 0
-3898 3897 0
3898 -3744 -3897 0
-3899 3747 0
-3899 3898 0
3899 -3747 -3898 0
-3900 3750 0
-3900 3899 0
3900 -3750 -3899 0
-3901 3753 0
-3901 3900 0
3901 -3753 -3900 0
-3902 3756 0
-3902 3901 0
3902 -3756 -3901 0
-3903 3759 0
-3903 3902 0
3903 -3759 -3902 0
-3904 3762 0
-3904 3903 0
3904 -3762 -3903 0
-3905 3765 0
-3905 3904 0
3905 -3765 -3904 0
-3906 3768 0
-3906 3905 0
3906 -3768 -3905 0
-3907 3771 0
-3907 3906 0
3907 -3771 -3906 0
-3908 3774 0
-3908 3907 0
3908 -3774 -3907 0
-3909 3777 0
-3909 3908 0
3909 -3777 -3908 0
-3910 3780 0
-3910 3909 0
3910 -3780 -3909 0
-3911 3783 0
-3911 3910 0
3911 -3783 -3910 0
-3912 3786 0
-3912 3911 0
3912 -3786 -3911 0
-3913 3789 0
-3913 3912 0
3913 -3789 -3912 0
-3914 3792 0
-3914 3913 0
3914 -3792 -3913 0
-3915 3795 0
-3915 3914 0
3915 -3795 -3914 0
-3916 3798 0
-3916 3915 0
3916 -3798 -3915 0
-3917 3801 0
-3917 3916 0
3917 -3801 -3916 0
-3918 3804 0
-3918 3917 0
3918 -3804 -3917 0
-3919 3807 0
-3919 3918 0
3919 -3807 -3918 0
-3920 3810 0
-3920 3919 0
3920 -3810 -3919 0
-3921 3813 0
-3921 3920 0
3921 -3813 -3920 0
-3922 3816 0
-3922 3921 0
3922 -3816 -3921 0
-3923 3819 0
-3923 3922 0
3923 -3819 -3922 0
-3924 3822 0
-3924 3923 0
3924 -3822 -3923 0
-3925 3825 0
-3925 3924 0
3925 -3825 -3924 0
-3926 3828 0
-3926 3925 0
3926 -3828 -3925 0
-3927 3831 0
-3927 3926 0
3927 -3831 -3926 0
-3928 3834 0
-3928 3927 0
3928 -3834 -3927 0
-3929 3837 0
-3929 3928 0
3929 -3837 -3928 0
-3930 3840 0
-3930 3929 0
3930 -3840 -3929 0
-3931 3843 0
-3931 3930 0
3931 -3843 -3930 0
-3932 3846 0
-3932 3931 0
3932 -3846 -3931 0
-3933 3849 0
-3933 3932 0
3933 -3849 -3932 0
-3934 3852 0
-3934 3933 0
3934 -3852 -3933 0
-3935 3855 0
-3935 3934 0
3935 -3855 -3934 0
-3936 3858 0
-3936 3935 0
3936 -3858 -3935 0
-3937 3861 0
-3937 3936 0
3937 -3861 -3936 0
-3938 3864 0
-3938 3937 0
3938 -3864 -3937 0
-3939 3867 0
-3939 3938 0
3939 -3867 -3938 0
-3940 3870 0
-3940 3939 0
3940 -3870 -3939 0
-3941 3873 0
-3941 3940 0
3941 -3873 -3940 0
-3942 3876 0
-3942 3941 0
3942 -3876 -3941 0
-3943 3879 0
-3943 3942 0
3943 -3879 -3942 0
-3944 3882 0
-3944 3943 0
3944 -3882 -3943 0
-3945 -3067 0
-3945 3944 0
3945 3067 -3944 0
-3946 2398 0
-3946 -3945 0
3946 -2398 3945 0
-3947 3003 0
-3947 -3946 0
3947 -3003 3946 0
-4134 -2503 0
-4134 3066 0
4134 2503 -3066 0
-4135 2503 0
-4135 -3066 0
4135 -2503 3066 0
-4136 -4134 0
-4136 -4135 0
4136 4134 4135 0
-4131 -2502 0
-4131 3065 0
4131 2502 -3065 0
-4132 2502 0
-4132 -3065 0
4132 -2502 3065 0
-4133 -4131 0
-4133 -4132 0
4133 4131 4132 0
-4128 -2501 0
-4128 3064 0
4128 2501 -3064 0
-4129 2501 0
-4129 -3064 0
4129 -2501 3064 0
-4130 -4128 0
-4130 -4129 0
4130 4128 4129 0
-4125 -2500 0
-4125 3063 0
4125 2500 -3063 0
-4126 2500 0
-4126 -3063 0
4126 -2500 3063 0
-4127 -4125 0
-4127 -4126 0
4127 4125 4126 0
-4122 -2499 0
-4122 3062 0
4122 2499 -3062 0
-4123 2499 0
-4123 -3062 0
4123 -2499 3062 0
-4124 -4122 0
-4124 -4123 0
4124 4122 4123 0
-4119 -2498 0
-4119 3061 0
4119 2498 -3061 0
-4120 2498 0
-4120 -3061 0
4120 -2498 3061 0
-4121 -4119 0
-4121 -4120 0
4121 4119 4120 0
-4116 -2497 0
-4116 3060 0
4116 2497 -3060 0
-4117 2497 0
-4117 -3060 0
4117 -2497 3060 0
-4118 -4116 0
-4118 -4117 0
4118 4116 4117 0
-4113 -2496 0
-4113 3059 0
4113 2496 -3059 0
-4114 2496 0
-4114 -3059 0
4114 -2496 3059 0
-4115 -4113 0
-4115 -4114 0
4115 4113 4114 0
-4110 -2495 0
-4110 3058 0
4110 2495 -3058 0
-4111 2495 0
-4111 -3058 0
4111 -2495 3058 0
-4112 -4110 0
-4112 -4111 0
4112 4110 4111 0
-4107 -2494 0
-4107 3057 0
4107 2494 -3057 0
-4108 2494 0
-4108 -3057 0
4108 -2494 3057 0
-4109 -4107 0
-4109 -4108 0
4109 4107 4108 0
-4104 -2493 0
-4104 3056 0
4104 2493 -3056 0
-4105 2493 0
-4105 -3056 0
4105 -2493 3056 0
-4106 -4104 0
-4106 -4105 0
4106 4104 4105 0
-4101 -2492 0
-4101 3055 0
4101 2492 -3055 0
-4102 2492 0
-4102 -3055 0
4102 -2492 3055 0
-4103 -4101 0
-4103 -4102 0
4103 4101 4102 0
-4098 -2491 0
-4098 3054 0
4098 2491 -3054 0
-4099 2491 0
-4099 -3054 0
4099 -2491 3054 0
-4100 -4098 0
-4100 -4099 0
4100 4098 4099 0
-4095 -2490 0
-4095 3053 0
4095 2490 -3053 0
-4096 2490 0
-4096 -3053 0
4096 -2490 3053 0
-4097 -4095 0
-4097 -4096 0
4097 4095 4096 0
-4092 -2489 0
-4092 3052 0
4092 2489 -3052 0
-4093 2489 0
-4093 -3052 0
4093 -2489 3052 0
-4094 -4092 0
-4094 -4093 0
4094 4092 4093 0
-4089 -2488 0
-4089 3051 0
4089 2488 -3051 0
-4090 2488 0
-4090 -3051 0
4090 -2488 3051 0
-4091 -4089 0
-4091 -4090 0
4091 4089 4090 0
-4086 -2487 0
-4086 3050 0
4086 2487 -3050 0
-4087 2487 0
-4087 -3050 0
4087 -2487 3050 0
-4088 -4086 0
-4088 -4087 0
4088 4086 4087 0
-4083 -2486 0
-4083 3049 0
4083 2486 -3049 0
-4084 2486 0
-4084 -3049 0
4084 -2486 3049 0
-4085 -4083 0
-4085 -4084 0
4085 4083 4084 0
-4080 -2485 0
-4080 3048 0
4080 2485 -3048 0
-4081 2485 0
-4081 -3048 0
4081 -2485 3048 0
-4082 -4080 0
-4082 -4081 0
4082 4080 4081 0
-4077 -2484 0
-4077 3047 0
4077 2484 -3047 0
-4078 2484 0
-4078 -3047 0
4078 -2484 3047 0
-4079 -4077 0
-4079 -4078 0
4079 4077 4078 0
-4074 -2483 0
-4074 3046 0
4074 2483 -3046 0
-4075 2483 0
-4075 -3046 0
4075 -2483 3046 0
-4076 -4074 0
-4076 -4075 0
4076 4074 4075 0
-4071 -2482 0
-4071 3045 0
4071 2482 -3045 0
-4072 2482 0
-4072 -3045 0
4072 -2482 3045 0
-4073 -4071 0
-4073 -4072 0
4073 4071 4072 0
-4068 -2481 0
-4068 3044 0
4068 2481 -3044 0
-4069 2481 0
-4069 -3044 0
4069 -2481 3044 0
-4070 -4068 0
-4070 -4069 0
4070 4068 4069 0
-4065 -2480 0
-4065 3043 0
4065 2480 -3043 0
-4066 2480 0
-4066 -3043 0
4066 -2480 3043 0
-4067 -4065 0
-4067 -4066 0
4067 4065 4066 0
-4062 -2479 0
-4062 3042 0
4062 2479 -3042 0
-4063 2479 0
-4063 -3042 0
4063 -2479 3042 0
-4064 -4062 0
-4064 -4063 0
4064 4062 4063 0
-4059 -2478 0
-4059 3041 0
4059 2478 -3041 0
-4060 2478 0
-4060 -3041 0
4060 -2478 3041 0
-4061 -4059 0
-4061 -4060 0
4061 4059 4060 0
-4056 -2477 0
-4056 3040 0
4056 2477 -3040 0
-4057 2477 0
-4057 -3040 0
4057 -2477 3040 0
-4058 -4056 0
-4058 -4057 0
4058 4056 4057 0
-4053 -2476 0
-4053 3039 0
4053 2476 -3039 0
-4054 2476 0
-4054 -3039 0
4054 -2476 3039 0
-4055 -4053 0
-4055 -4054 0
4055 4053 4054 0
-4050 -2475 0
-4050 3038 0
4050 2475 -3038 0
-4051 2475 0
-4051 -3038 0
4051 -2475 3038 0
-4052 -4050 0
-4052 -4051 0
4052 4050 4051 0
-4047 -2474 0
-4047 3037 0
4047 2474 -3037 0
-4048 2474 0
-4048 -3037 0
4048 -2474 3037 0
-4049 -4047 0
-4049 -4048 0
4049 4047 4048 0
-4044 -2473 0
-4044 3036 0
4044 2473 -3036 0
-4045 2473 0
-4045 -3036 0
4045 -2473 3036 0
-4046 -4044 0
-4046 -4045 0
4046 4044 4045 0
-4041 -2472 0
-4041 3035 0
4041 2472 -3035 0
-4042 2472 0
-4042 -3035 0
4042 -2472 3035 0
-4043 -4041 0
-4043 -4042 0
4043 4041 4042 0
-4038 -2471 0
-4038 3034 0
4038 2471 -3034 0
-4039 2471 0
-4039 -3034 0
4039 -2471 3034 0
-4040 -4038 0
-4040 -4039 0
4040 4038 4039 0
-4035 -2470 0
-4035 3033 0
4035 2470 -3033 0
-4036 2470 0
-4036 -3033 0
4036 -2470 3033 0
-4037 -4035 0
-4037 -4036 0
4037 4035 4036 0
-4032 -2469 0
-4032 3032 0
4032 2469 -3032 0
-4033 2469 0
-4033 -3032 0
4033 -2469 3032 0
-4034 -4032 0
-4034 -4033 0
4034 4032 4033 0
-4029 -2468 0
-4029 3031 0
4029 2468 -3031 0
-4030 2468 0
-4030 -3031 0
4030 -2468 3031 0
-4031 -4029 0
-4031 -4030 0
4031 4029 4030 0
-4026 -2467 0
-4026 3030 0
4026 2467 -3030 0
-4027 2467 0
-4027 -3030 0
4027 -2467 3030 0
-4028 -4026 0
-4028 -4027 0
4028 4026 4027 0
-4023 -2466 0
-4023 3029 0
4023 2466 -3029 0
-4024 2466 0
-4024 -3029 0
4024 -2466 3029 0
-4025 -4023 0
-4025 -4024 0
4025 4023 4024 0
-4020 -2465 0
-4020 3028 0
4020 2465 -3028 0
-4021 2465 0
-4021 -3028 0
4021 -2465 3028 0
-4022 -4020 0
-4022 -4021 0
4022 4020 4021 0
-4017 -2464 0
-4017 3027 0
4017 2464 -3027 0
-4018 2464 0
-4018 -3027 0
4018 -2464 3027 0
-4019 -4017 0
-4019 -4018 0
4019 4017 4018 0
-4014 -2463 0
-4014 3026 0
4014 2463 -3026 0
-4015 2463 0
-4015 -3026 0
4015 -2463 3026 0
-4016 -4014 0
-4016 -4015 0
4016 4014 4015 0
-4011 -2462 0
-4011 3025 0
4011 2462 -3025 0
-4012 2462 0
-4012 -3025 0
4012 -2462 3025 0
-4013 -4011 0
-4013 -4012 0
4013 4011 4012 0
-4008 -2461 0
-4008 3024 0
4008 2461 -3024 0
-4009 2461 0
-4009 -3024 0
4009 -2461 3024 0
-4010 -4008 0
-4010 -4009 0
4010 4008 4009 0
-4005 -2460 0
-4005 3023 0
4005 2460 -3023 0
-4006 2460 0
-4006 -3023 0
4006 -2460 3023 0
-4007 -4005 0
-4007 -4006 0
4007 4005 4006 0
-4002 -2459 0
-4002 3022 0
4002 2459 -3022 0
-4003 2459 0
-4003 -3022 0
4003 -2459 3022 0
-4004 -4002 0
-4004 -4003 0
4004 4002 4003 0
-3999 -2458 0
-3999 3021 0
3999 2458 -3021 0
-4000 2458 0
-4000 -3021 0
4000 -2458 3021 0
-4001 -3999 0
-4001 -4000 0
4001 3999 4000 0
-3996 -2457 0
-3996 3020 0
3996 2457 -3020 0
-3997 2457 0
-3997 -3020 0
3997 -2457 3020 0
-3998 -3996 0
-3998 -3997 0
3998 3996 3997 0
-3993 -2456 0
-3993 3019 0
3993 2456 -3019 0
-3994 2456 0
-3994 -3019 0
3994 -2456 3019 0
-3995 -3993 0
-3995 -3994 0
3995 3993 3994 0
-3990 -2455 0
-3990 3018 0
3990 2455 -3018 0
-3991 2455 0
-3991 -3018 0
3991 -2455 3018 0
-3992 -3990 0
-3992 -3991 0
3992 3990 3991 0
-3987 -2454 0
-3987 3017 0
3987 2454 -3017 0
-3988 2454 0
-3988 -3017 0
3988 -2454 3017 0
-3989 -3987 0
-3989 -3988 0
3989 3987 3988 0
-3984 -2453 0
-3984 3016 0
3984 2453 -3016 0
-3985 2453 0
-3985 -3016 0
3985 -2453 3016 0
-3986 -3984 0
-3986 -3985 0
3986 3984 3985 0
-3981 -2452 0
-3981 3015 0
3981 2452 -3015 0
-3982 2452 0
-3982 -3015 0
3982 -2452 3015 0
-3983 -3981 0
-3983 -3982 0
3983 3981 3982 0
-3978 -2451 0
-3978 3014 0
3978 2451 -3014 0
-3979 2451 0
-3979 -3014 0
3979 -2451 3014 0
-3980 -3978 0
-3980 -3979 0
3980 3978 3979 0
-3975 -2450 0
-3975 3013 0
3975 2450 -3013 0
-3976 2450 0
-3976 -3013 0
3976 -2450 3013 0
-3977 -3975 0
-3977 -3976 0
3977 3975 3976 0
-3972 -2449 0
-3972 3012 0
3972 2449 -3012 0
-3973 2449 0
-3973 -3012 0
3973 -2449 3012 0
-3974 -3972 0
-3974 -3973 0
3974 3972 3973 0
-3969 -2448 0
-3969 3011 0
3969 2448 -3011 0
-3970 2448 0
-3970 -3011 0
3970 -2448 3011 0
-3971 -3969 0
-3971 -3970 0
3971 3969 3970 0
-3966 -2447 0
-3966 3010 0
3966 2447 -3010 0
-3967 2447 0
-3967 -3010 0
3967 -2447 3010 0
-3968 -3966 0
-3968 -3967 0
3968 3966 3967 0
-3963 -2446 0
-3963 3009 0
3963 2446 -3009 0
-3964 2446 0
-3964 -3009 0
3964 -2446 3009 0
-3965 -3963 0
-3965 -3964 0
3965 3963 3964 0
-3960 -2445 0
-3960 3008 0
3960 2445 -3008 0
-3961 2445 0
-3961 -3008 0
3961 -2445 3008 0
-3962 -3960 0
-3962 -3961 0
3962 3960 3961 0
-3957 -2444 0
-3957 3007 0
3957 2444 -3007 0
-3958 2444 0
-3958 -3007 0
3958 -2444 3007 0
-3959 -3957 0
-3959 -3958 0
3959 3957 3958 0
-3954 -2443 0
-3954 3006 0
3954 2443 -3006 0
-3955 2443 0
-3955 -3006 0
3955 -2443 3006 0
-3956 -3954 0
-3956 -3955 0
3956 3954 3955 0
-3948 -2441 0
-3948 3004 0
3948 2441 -3004 0
-3949 2441 0
-3949 -3004 0
3949 -2441 3004 0
-3950 -3948 0
-3950 -3949 0
3950 3948 3949 0
-3951 -2442 0
-3951 3005 0
3951 2442 -3005 0
-3952 2442 0
-3952 -3005 0
3952 -2442 3005 0
-3953 -3951 0
-3953 -3952 0
3953 3951 3952 0
-4137 3950 0
-4137 3953 0
4137 -3950 -3953 0
-4138 3956 0
-4138 4137 0
4138 -3956 -4137 0
-4139 3959 0
-4139 4138 0
4139 -3959 -4138 0
-4140 3962 0
-4140 4139 0
4140 -3962 -4139 0
-4141 3965 0
-4141 4140 0
4141 -3965 -4140 0
-4142 3968 0
-4142 4141 0
4142 -3968 -4141 0
-4143 3971 0
-4143 4142 0
4143 -3971 -4142 0
-4144 3974 0
-4144 4143 0
4144 -3974 -4143 0
-4145 3977 0
-4145 4144 0
4145 -3977 -4144 0
-4146 3980 0
-4146 4145 0
4146 -3980 -4145 0
-4147 3983 0
-4147 4146 0
4147 -3983 -4146 0
-4148 3986 0
-4148 4147 0
4148 -3986 -4147 0
-4149 3989 0
-4149 4148 0
4149 -3989 -4148 0
-4150 3992 0
-4150 4149 0
4150 -3992 -4149 0
-4151 3995 0
-4151 4150 0
4151 -3995 -4150 0
-4152 3998 0
-4152 4151 0
4152 -3998 -4151 0
-4153 4001 0
-4153 4152 0
4153 -4001 -4152 0
-4154 4004 0
-4154 4153 0
4154 -4004 -4153 0
-4155 4007 0
-4155 4154 0
4155 -4007 -4154 0
-4156 4010 0
-4156 4155 0
4156 -4010 -4155 0
-4157 4013 0
-4157 4156 0
4157 -4013 -4156 0
-4158 4016 0
-4158 4157 0
4158 -4016 -4157 0
-4159 4019 0
-4159 4158 0
4159 -4019 -4158 0
-4160 4022 0
-4160 4159 0
4160 -4022 -4159 0
-4161 4025 0
-4161 4160 0
4161 -4025 -4160 0
-4162 4028 0
-4162 4161 0
4162 -4028 -4161 0
-4163 4031 0
-4163 4162 0
4163 -4031 -4162 0
-4164 4034 0
-4164 4163 0
4164 -4034 -4163 0
-4165 4037 0
-4165 4164 0
4165 -4037 -4164 0
-4166 4040 0
-4166 4165 0
4166 -4040 -4165 0
-4167 4043 0
-4167 4166 0
4167 -4043 -4166 0
-4168 4046 0
-4168 4167 0
4168 -4046 -4167 0
-4169 4049 0
-4169 4168 0
4169 -4049 -4168 0
-4170 4052 0
-4170 4169 0
4170 -4052 -4169 0
-4171 4055 0
-4171 4170 0
4171 -4055 -4170 0
-4172 4058 0
-4172 4171 0
4172 -4058 -4171 0
-4173 4061 0
-4173 4172 0
4173 -4061 -4172 0
-4174 4064 0
-4174 4173 0
4174 -4064 -4173 0
-4175 4067 0
-4175 4174 0
4175 -4067 -4174 0
-4176 4070 0
-4176 4175 0
4176 -4070 -4175 0
-4177 4073 0
-4177 4176 0
4177 -4073 -4176 0
-4178 4076 0
-4178 4177 0
4178 -4076 -4177 0
-4179 4079 0
-4179 4178 0
4179 -4079 -4178 0
-4180 4082 0
-4180 4179 0
4180 -4082 -4179 0
-4181 4085 0
-4181 4180 0
4181 -4085 -4180 0
-4182 4088 0
-4182 4181 0
4182 -4088 -4181 0
-4183 4091 0
-4183 4182 0
4183 -4091 -4182 0
-4184 4094 0
-4184 4183 0
4184 -4094 -4183 0
-4185 4097 0
-4185 4184 0
4185 -4097 -4184 0
-4186 4100 0
-4186 4185 0
4186 -4100 -4185 0
-4187 4103 0
-4187 4186 0
4187 -4103 -4186 0
-4188 4106 0
-4188 4187 0
4188 -4106 -4187 0
-4189 4109 0
-4189 4188 0
4189 -4109 -4188 0
-4190 4112 0
-4190 4189 0
4190 -4112 -4189 0
-4191 4115 0
-4191 4190 0
4191 -4115 -4190 0
-4192 4118 0
-4192 4191 0
4192 -4118 -4191 0
-4193 4121 0
-4193 4192 0
4193 -4121 -4192 0
-4194 4124 0
-4194 4193 0
4194 -4124 -4193 0
-4195 4127 0
-4195 4194 0
4195 -4127 -4194 0
-4196 4130 0
-4196 4195 0
4196 -4130 -4195 0
-4197 4133 0
-4197 4196 0
4197 -4133 -4196 0
-4198 4136 0
-4198 4197 0
4198 -4136 -4197 0
-4199 -3067 0
-4199 4198 0
4199 3067 -4198 0
-4200 -2398 0
-4200 -4199 0
4200 2398 4199 0
-4201 3947 0
-4201 -4200 0
4201 -3947 4200 0
4202 -16638 0
-4202 16638 0
-4203 -1695 0
-4203 4202 0
4203 1695 -4202 0
-4204 1695 0
-4204 -4202 0
4204 -1695 4202 0
-4205 -4203 0
-4205 -4204 0
4205 4203 4204 0
-4206 746 0
-4206 -4205 0
4206 -746 4205 0
-4207 4201 0
-4207 -4206 0
4207 -4201 4206 0
-4208 -822 0
-4208 4202 0
4208 822 -4202 0
-4209 822 0
-4209 -4202 0
4209 -822 4202 0
-4210 -4208 0
-4210 -4209 0
4210 4208 4209 0
-4211 -746 0
-4211 -4210 0
4211 746 4210 0
-4212 4207 0
-4212 -4211 0
4212 -4207 4211 0
4213 -16639 0
-4213 16639 0
-4214 -3507 0
-4214 4213 0
4214 3507 -4213 0
-4215 3507 0
-4215 -4213 0
4215 -3507 4213 0
-4216 -4214 0
-4216 -4215 0
4216 4214 4215 0
-4217 2398 0
-4217 -4216 0
4217 -2398 4216 0
-4218 4212 0
-4218 -4217 0
4218 -4212 4217 0
-4219 -4202 0
-4219 4213 0
4219 4202 -4213 0
-4220 4202 0
-4220 -4213 0
4220 -4202 4213 0
-4221 -4219 0
-4221 -4220 0
4221 4219 4220 0
-4222 -2398 0
-4222 -4221 0
4222 2398 4221 0
-4223 4218 0
-4223 -4222 0
4223 -4218 4222 0
4233 -16649 0
-4233 16649 0
4232 -16648 0
-4232 16648 0
4231 -16647 0
-4231 16647 0
4230 -16646 0
-4230 16646 0
4229 -16645 0
-4229 16645 0
4228 -16644 0
-4228 16644 0
4227 -16643 0
-4227 16643 0
4226 -16642 0
-4226 16642 0
4224 -16640 0
-4224 16640 0
4225 -16641 0
-4225 16641 0
-4234 4224 0
-4234 -4225 0
4234 -4224 4225 0
-4235 -4226 0
-4235 4234 0
4235 4226 -4234 0
-4236 -4227 0
-4236 4235 0
4236 4227 -4235 0
-4237 -4228 0
-4237 4236 0
4237 4228 -4236 0
-4238 -4229 0
-4238 4237 0
4238 4229 -4237 0
-4239 -4230 0
-4239 4238 0
4239 4230 -4238 0
-4240 -4231 0
-4240 4239 0
4240 4231 -4239 0
-4241 -4232 0
-4241 4240 0
4241 4232 -4240 0
-4242 -4233 0
-4242 4241 0
4242 4233 -4241 0
-4243 4213 0
-4243 -4242 0
4243 -4213 4242 0
-4244 4223 0
-4244 -4243 0
4244 -4223 4243 0
-4245 -4224 0
-4245 -4225 0
4245 4224 4225 0
-4246 -4226 0
-4246 4245 0
4246 4226 -4245 0
-4247 -4227 0
-4247 4246 0
4247 4227 -4246 0
-4248 -4228 0
-4248 4247 0
4248 4228 -4247 0
-4249 -4229 0
-4249 4248 0
4249 4229 -4248 0
-4250 -4230 0
-4250 4249 0
4250 4230 -4249 0
-4251 -4231 0
-4251 4250 0
4251 4231 -4250 0
-4252 -4232 0
-4252 4251 0
4252 4232 -4251 0
-4253 -4233 0
-4253 4252 0
4253 4233 -4252 0
-4254 -4213 0
-4254 -4253 0
4254 4213 4253 0
-4255 4244 0
-4255 -4254 0
4255 -4244 4254 0
4318 -16712 0
-4318 16712 0
4317 -16711 0
-4317 16711 0
-4502 -3693 0
-4502 4317 0
4502 3693 -4317 0
-4503 3693 0
-4503 -4317 0
4503 -3693 4317 0
-4504 -4502 0
-4504 -4503 0
4504 4502 4503 0
4316 -16710 0
-4316 16710 0
-4499 -3690 0
-4499 4316 0
4499 3690 -4316 0
-4500 3690 0
-4500 -4316 0
4500 -3690 4316 0
-4501 -4499 0
-4501 -4500 0
4501 4499 4500 0
4315 -16709 0
-4315 16709 0
-4496 -3687 0
-4496 4315 0
4496 3687 -4315 0
-4497 3687 0
-4497 -4315 0
4497 -3687 4315 0
-4498 -4496 0
-4498 -4497 0
4498 4496 4497 0
4314 -16708 0
-4314 16708 0
-4493 -3684 0
-4493 4314 0
4493 3684 -4314 0
-4494 3684 0
-4494 -4314 0
4494 -3684 4314 0
-4495 -4493 0
-4495 -4494 0
4495 4493 4494 0
4313 -16707 0
-4313 16707 0
-4490 -3681 0
-4490 4313 0
4490 3681 -4313 0
-4491 3681 0
-4491 -4313 0
4491 -3681 4313 0
-4492 -4490 0
-4492 -4491 0
4492 4490 4491 0
4312 -16706 0
-4312 16706 0
-4487 -3678 0
-4487 4312 0
4487 3678 -4312 0
-4488 3678 0
-4488 -4312 0
4488 -3678 4312 0
-4489 -4487 0
-4489 -4488 0
4489 4487 4488 0
4311 -16705 0
-4311 16705 0
-4484 -3675 0
-4484 4311 0
4484 3675 -4311 0
-4485 3675 0
-4485 -4311 0
4485 -3675 4311 0
-4486 -4484 0
-4486 -4485 0
4486 4484 4485 0
4310 -16704 0
-4310 16704 0
-4481 -3672 0
-4481 4310 0
4481 3672 -4310 0
-4482 3672 0
-4482 -4310 0
4482 -3672 4310 0
-4483 -4481 0
-4483 -4482 0
4483 4481 4482 0
4309 -16703 0
-4309 16703 0
-4478 -3669 0
-4478 4309 0
4478 3669 -4309 0
-4479 3669 0
-4479 -4309 0
4479 -3669 4309 0
-4480 -4478 0
-4480 -4479 0
4480 4478 4479 0
4308 -16702 0
-4308 16702 0
-4475 -3666 0
-4475 4308 0
4475 3666 -4308 0
-4476 3666 0
-4476 -4308 0
4476 -3666 4308 0
-4477 -4475 0
-4477 -4476 0
4477 4475 4476 0
4307 -16701 0
-4307 16701 0
-4472 -3663 0
-4472 4307 0
4472 3663 -4307 0
-4473 3663 0
-4473 -4307 0
4473 -3663 4307 0
-4474 -4472 0
-4474 -4473 0
4474 4472 4473 0
4306 -16700 0
-4306 16700 0
-4469 -3660 0
-4469 4306 0
4469 3660 -4306 0
-4470 3660 0
-4470 -4306 0
4470 -3660 4306 0
-4471 -4469 0
-4471 -4470 0
4471 4469 4470 0
4305 -16699 0
-4305 16699 0
-4466 -3657 0
-4466 4305 0
4466 3657 -4305 0
-4467 3657 0
-4467 -4305 0
4467 -3657 4305 0
-4468 -4466 0
-4468 -4467 0
4468 4466 4467 0
4304 -16698 0
-4304 16698 0
-4463 -3654 0
-4463 4304 0
4463 3654 -4304 0
-4464 3654 0
-4464 -4304 0
4464 -3654 4304 0
-4465 -4463 0
-4465 -4464 0
4465 4463 4464 0
4303 -16697 0
-4303 16697 0
-4460 -3651 0
-4460 4303 0
4460 3651 -4303 0
-4461 3651 0
-4461 -4303 0
4461 -3651 4303 0
-4462 -4460 0
-4462 -4461 0
4462 4460 4461 0
4302 -16696 0
-4302 16696 0
-4457 -3648 0
-4457 4302 0
4457 3648 -4302 0
-4458 3648 0
-4458 -4302 0
4458 -3648 4302 0
-4459 -4457 0
-4459 -4458 0
4459 4457 4458 0
4301 -16695 0
-4301 16695 0
-4454 -3645 0
-4454 4301 0
4454 3645 -4301 0
-4455 3645 0
-4455 -4301 0
4455 -3645 4301 0
-4456 -4454 0
-4456 -4455 0
4456 4454 4455 0
4300 -16694 0
-4300 16694 0
-4451 -3642 0
-4451 4300 0
4451 3642 -4300 0
-4452 3642 0
-4452 -4300 0
4452 -3642 4300 0
-4453 -4451 0
-4453 -4452 0
4453 4451 4452 0
4299 -16693 0
-4299 16693 0
-4448 -3639 0
-4448 4299 0
4448 3639 -4299 0
-4449 3639 0
-4449 -4299 0
4449 -3639 4299 0
-4450 -4448 0
-4450 -4449 0
4450 4448 4449 0
4298 -16692 0
-4298 16692 0
-4445 -3636 0
-4445 4298 0
4445 3636 -4298 0
-4446 3636 0
-4446 -4298 0
4446 -3636 4298 0
-4447 -4445 0
-4447 -4446 0
4447 4445 4446 0
4297 -16691 0
-4297 16691 0
-4442 -3633 0
-4442 4297 0
4442 3633 -4297 0
-4443 3633 0
-4443 -4297 0
4443 -3633 4297 0
-4444 -4442 0
-4444 -4443 0
4444 4442 4443 0
4296 -16690 0
-4296 16690 0
-4439 -3630 0
-4439 4296 0
4439 3630 -4296 0
-4440 3630 0
-4440 -4296 0
4440 -3630 4296 0
-4441 -4439 0
-4441 -4440 0
4441 4439 4440 0
4295 -16689 0
-4295 16689 0
-4436 -3627 0
-4436 4295 0
4436 3627 -4295 0
-4437 3627 0
-4437 -4295 0
4437 -3627 4295 0
-4438 -4436 0
-4438 -4437 0
4438 4436 4437 0
4294 -16688 0
-4294 16688 0
-4433 -3624 0
-4433 4294 0
4433 3624 -4294 0
-4434 3624 0
-4434 -4294 0
4434 -3624 4294 0
-4435 -4433 0
-4435 -4434 0
4435 4433 4434 0
4293 -16687 0
-4293 16687 0
-4430 -3621 0
-4430 4293 0
4430 3621 -4293 0
-4431 3621 0
-4431 -4293 0
4431 -3621 4293 0
-4432 -4430 0
-4432 -4431 0
4432 4430 4431 0
4292 -16686 0
-4292 16686 0
-4427 -3618 0
-4427 4292 0
4427 3618 -4292 0
-4428 3618 0
-4428 -4292 0
4428 -3618 4292 0
-4429 -4427 0
-4429 -4428 0
4429 4427 4428 0
4291 -16685 0
-4291 16685 0
-4424 -3615 0
-4424 4291 0
4424 3615 -4291 0
-4425 3615 0
-4425 -4291 0
4425 -3615 4291 0
-4426 -4424 0
-4426 -4425 0
4426 4424 4425 0
4290 -16684 0
-4290 16684 0
-4421 -3612 0
-4421 4290 0
4421 3612 -4290 0
-4422 3612 0
-4422 -4290 0
4422 -3612 4290 0
-4423 -4421 0
-4423 -4422 0
4423 4421 4422 0
4289 -16683 0
-4289 16683 0
-4418 -3609 0
-4418 4289 0
4418 3609 -4289 0
-4419 3609 0
-4419 -4289 0
4419 -3609 4289 0
-4420 -4418 0
-4420 -4419 0
4420 4418 4419 0
4288 -16682 0
-4288 16682 0
-4415 -3606 0
-4415 4288 0
4415 3606 -4288 0
-4416 3606 0
-4416 -4288 0
4416 -3606 4288 0
-4417 -4415 0
-4417 -4416 0
4417 4415 4416 0
4287 -16681 0
-4287 16681 0
-4412 -3603 0
-4412 4287 0
4412 3603 -4287 0
-4413 3603 0
-4413 -4287 0
4413 -3603 4287 0
-4414 -4412 0
-4414 -4413 0
4414 4412 4413 0
4286 -16680 0
-4286 16680 0
-4409 -3600 0
-4409 4286 0
4409 3600 -4286 0
-4410 3600 0
-4410 -4286 0
4410 -3600 4286 0
-4411 -4409 0
-4411 -4410 0
4411 4409 4410 0
4285 -16679 0
-4285 16679 0
-4406 -3597 0
-4406 4285 0
4406 3597 -4285 0
-4407 3597 0
-4407 -4285 0
4407 -3597 4285 0
-4408 -4406 0
-4408 -4407 0
4408 4406 4407 0
4284 -16678 0
-4284 16678 0
-4403 -3594 0
-4403 4284 0
4403 3594 -4284 0
-4404 3594 0
-4404 -4284 0
4404 -3594 4284 0
-4405 -4403 0
-4405 -4404 0
4405 4403 4404 0
4283 -16677 0
-4283 16677 0
-4400 -3591 0
-4400 4283 0
4400 3591 -4283 0
-4401 3591 0
-4401 -4283 0
4401 -3591 4283 0
-4402 -4400 0
-4402 -4401 0
4402 4400 4401 0
4282 -16676 0
-4282 16676 0
-4397 -3588 0
-4397 4282 0
4397 3588 -4282 0
-4398 3588 0
-4398 -4282 0
4398 -3588 4282 0
-4399 -4397 0
-4399 -4398 0
4399 4397 4398 0
4281 -16675 0
-4281 16675 0
-4394 -3585 0
-4394 4281 0
4394 3585 -4281 0
-4395 3585 0
-4395 -4281 0
4395 -3585 4281 0
-4396 -4394 0
-4396 -4395 0
4396 4394 4395 0
4280 -16674 0
-4280 16674 0
-4391 -3582 0
-4391 4280 0
4391 3582 -4280 0
-4392 3582 0
-4392 -4280 0
4392 -3582 4280 0
-4393 -4391 0
-4393 -4392 0
4393 4391 4392 0
4279 -16673 0
-4279 16673 0
-4388 -3579 0
-4388 4279 0
4388 3579 -4279 0
-4389 3579 0
-4389 -4279 0
4389 -3579 4279 0
-4390 -4388 0
-4390 -4389 0
4390 4388 4389 0
4278 -16672 0
-4278 16672 0
-4385 -3576 0
-4385 4278 0
4385 3576 -4278 0
-4386 3576 0
-4386 -4278 0
4386 -3576 4278 0
-4387 -4385 0
-4387 -4386 0
4387 4385 4386 0
4277 -16671 0
-4277 16671 0
-4382 -3573 0
-4382 4277 0
4382 3573 -4277 0
-4383 3573 0
-4383 -4277 0
4383 -3573 4277 0
-4384 -4382 0
-4384 -4383 0
4384 4382 4383 0
4276 -16670 0
-4276 16670 0
-4379 -3570 0
-4379 4276 0
4379 3570 -4276 0
-4380 3570 0
-4380 -4276 0
4380 -3570 4276 0
-4381 -4379 0
-4381 -4380 0
4381 4379 4380 0
4275 -16669 0
-4275 16669 0
-4376 -3567 0
-4376 4275 0
4376 3567 -4275 0
-4377 3567 0
-4377 -4275 0
4377 -3567 4275 0
-4378 -4376 0
-4378 -4377 0
4378 4376 4377 0
4274 -16668 0
-4274 16668 0
-4373 -3564 0
-4373 4274 0
4373 3564 -4274 0
-4374 3564 0
-4374 -4274 0
4374 -3564 4274 0
-4375 -4373 0
-4375 -4374 0
4375 4373 4374 0
4273 -16667 0
-4273 16667 0
-4370 -3561 0
-4370 4273 0
4370 3561 -4273 0
-4371 3561 0
-4371 -4273 0
4371 -3561 4273 0
-4372 -4370 0
-4372 -4371 0
4372 4370 4371 0
4272 -16666 0
-4272 16666 0
-4367 -3558 0
-4367 4272 0
4367 3558 -4272 0
-4368 3558 0
-4368 -4272 0
4368 -3558 4272 0
-4369 -4367 0
-4369 -4368 0
4369 4367 4368 0
4271 -16665 0
-4271 16665 0
-4364 -3555 0
-4364 4271 0
4364 3555 -4271 0
-4365 3555 0
-4365 -4271 0
4365 -3555 4271 0
-4366 -4364 0
-4366 -4365 0
4366 4364 4365 0
4270 -16664 0
-4270 16664 0
-4361 -3552 0
-4361 4270 0
4361 3552 -4270 0
-4362 3552 0
-4362 -4270 0
4362 -3552 4270 0
-4363 -4361 0
-4363 -4362 0
4363 4361 4362 0
4269 -16663 0
-4269 16663 0
-4358 -3549 0
-4358 4269 0
4358 3549 -4269 0
-4359 3549 0
-4359 -4269 0
4359 -3549 4269 0
-4360 -4358 0
-4360 -4359 0
4360 4358 4359 0
4268 -16662 0
-4268 16662 0
-4355 -3546 0
-4355 4268 0
4355 3546 -4268 0
-4356 3546 0
-4356 -4268 0
4356 -3546 4268 0
-4357 -4355 0
-4357 -4356 0
4357 4355 4356 0
4267 -16661 0
-4267 16661 0
-4352 -3543 0
-4352 4267 0
4352 3543 -4267 0
-4353 3543 0
-4353 -4267 0
4353 -3543 4267 0
-4354 -4352 0
-4354 -4353 0
4354 4352 4353 0
4266 -16660 0
-4266 16660 0
-4349 -3540 0
-4349 4266 0
4349 3540 -4266 0
-4350 3540 0
-4350 -4266 0
4350 -3540 4266 0
-4351 -4349 0
-4351 -4350 0
4351 4349 4350 0
4265 -16659 0
-4265 16659 0
-4346 -3537 0
-4346 4265 0
4346 3537 -4265 0
-4347 3537 0
-4347 -4265 0
4347 -3537 4265 0
-4348 -4346 0
-4348 -4347 0
4348 4346 4347 0
4264 -16658 0
-4264 16658 0
-4343 -3534 0
-4343 4264 0
4343 3534 -4264 0
-4344 3534 0
-4344 -4264 0
4344 -3534 4264 0
-4345 -4343 0
-4345 -4344 0
4345 4343 4344 0
4263 -16657 0
-4263 16657 0
-4340 -3531 0
-4340 4263 0
4340 3531 -4263 0
-4341 3531 0
-4341 -4263 0
4341 -3531 4263 0
-4342 -4340 0
-4342 -4341 0
4342 4340 4341 0
4262 -16656 0
-4262 16656 0
-4337 -3528 0
-4337 4262 0
4337 3528 -4262 0
-4338 3528 0
-4338 -4262 0
4338 -3528 4262 0
-4339 -4337 0
-4339 -4338 0
4339 4337 4338 0
4261 -16655 0
-4261 16655 0
-4334 -3525 0
-4334 4261 0
4334 3525 -4261 0
-4335 3525 0
-4335 -4261 0
4335 -3525 4261 0
-4336 -4334 0
-4336 -4335 0
4336 4334 4335 0
4260 -16654 0
-4260 16654 0
-4331 -3522 0
-4331 4260 0
4331 3522 -4260 0
-4332 3522 0
-4332 -4260 0
4332 -3522 4260 0
-4333 -4331 0
-4333 -4332 0
4333 4331 4332 0
4259 -16653 0
-4259 16653 0
-4328 -3519 0
-4328 4259 0
4328 3519 -4259 0
-4329 3519 0
-4329 -4259 0
4329 -3519 4259 0
-4330 -4328 0
-4330 -4329 0
4330 4328 4329 0
4258 -16652 0
-4258 16652 0
-4325 -3516 0
-4325 4258 0
4325 3516 -4258 0
-4326 3516 0
-4326 -4258 0
4326 -3516 4258 0
-4327 -4325 0
-4327 -4326 0
4327 4325 4326 0
4256 -16650 0
-4256 16650 0
-4319 -3510 0
-4319 4256 0
4319 3510 -4256 0
-4320 3510 0
-4320 -4256 0
4320 -3510 4256 0
-4321 -4319 0
-4321 -4320 0
4321 4319 4320 0
4257 -16651 0
-4257 16651 0
-4322 -3513 0
-4322 4257 0
4322 3513 -4257 0
-4323 3513 0
-4323 -4257 0
4323 -3513 4257 0
-4324 -4322 0
-4324 -4323 0
4324 4322 4323 0
-4505 4321 0
-4505 4324 0
4505 -4321 -4324 0
-4506 4327 0
-4506 4505 0
4506 -4327 -4505 0
-4507 4330 0
-4507 4506 0
4507 -4330 -4506 0
-4508 4333 0
-4508 4507 0
4508 -4333 -4507 0
-4509 4336 0
-4509 4508 0
4509 -4336 -4508 0
-4510 4339 0
-4510 4509 0
4510 -4339 -4509 0
-4511 4342 0
-4511 4510 0
4511 -4342 -4510 0
-4512 4345 0
-4512 4511 0
4512 -4345 -4511 0
-4513 4348 0
-4513 4512 0
4513 -4348 -4512 0
-4514 4351 0
-4514 4513 0
4514 -4351 -4513 0
-4515 4354 0
-4515 4514 0
4515 -4354 -4514 0
-4516 4357 0
-4516 4515 0
4516 -4357 -4515 0
-4517 4360 0
-4517 4516 0
4517 -4360 -4516 0
-4518 4363 0
-4518 4517 0
4518 -4363 -4517 0
-4519 4366 0
-4519 4518 0
4519 -4366 -4518 0
-4520 4369 0
-4520 4519 0
4520 -4369 -4519 0
-4521 4372 0
-4521 4520 0
4521 -4372 -4520 0
-4522 4375 0
-4522 4521 0
4522 -4375 -4521 0
-4523 4378 0
-4523 4522 0
4523 -4378 -4522 0
-4524 4381 0
-4524 4523 0
4524 -4381 -4523 0
-4525 4384 0
-4525 4524 0
4525 -4384 -4524 0
-4526 4387 0
-4526 4525 0
4526 -4387 -4525 0
-4527 4390 0
-4527 4526 0
4527 -4390 -4526 0
-4528 4393 0
-4528 4527 0
4528 -4393 -4527 0
-4529 4396 0
-4529 4528 0
4529 -4396 -4528 0
-4530 4399 0
-4530 4529 0
4530 -4399 -4529 0
-4531 4402 0
-4531 4530 0
4531 -4402 -4530 0
-4532 4405 0
-4532 4531 0
4532 -4405 -4531 0
-4533 4408 0
-4533 4532 0
4533 -4408 -4532 0
-4534 4411 0
-4534 4533 0
4534 -4411 -4533 0
-4535 4414 0
-4535 4534 0
4535 -4414 -4534 0
-4536 4417 0
-4536 4535 0
4536 -4417 -4535 0
-4537 4420 0
-4537 4536 0
4537 -4420 -4536 0
-4538 4423 0
-4538 4537 0
4538 -4423 -4537 0
-4539 4426 0
-4539 4538 0
4539 -4426 -4538 0
-4540 4429 0
-4540 4539 0
4540 -4429 -4539 0
-4541 4432 0
-4541 4540 0
4541 -4432 -4540 0
-4542 4435 0
-4542 4541 0
4542 -4435 -4541 0
-4543 4438 0
-4543 4542 0
4543 -4438 -4542 0
-4544 4441 0
-4544 4543 0
4544 -4441 -4543 0
-4545 4444 0
-4545 4544 0
4545 -4444 -4544 0
-4546 4447 0
-4546 4545 0
4546 -4447 -4545 0
-4547 4450 0
-4547 4546 0
4547 -4450 -4546 0
-4548 4453 0
-4548 4547 0
4548 -4453 -4547 0
-4549 4456 0
-4549 4548 0
4549 -4456 -4548 0
-4550 4459 0
-4550 4549 0
4550 -4459 -4549 0
-4551 4462 0
-4551 4550 0
4551 -4462 -4550 0
-4552 4465 0
-4552 4551 0
4552 -4465 -4551 0
-4553 4468 0
-4553 4552 0
4553 -4468 -4552 0
-4554 4471 0
-4554 4553 0
4554 -4471 -4553 0
-4555 4474 0
-4555 4554 0
4555 -4474 -4554 0
-4556 4477 0
-4556 4555 0
4556 -4477 -4555 0
-4557 4480 0
-4557 4556 0
4557 -4480 -4556 0
-4558 4483 0
-4558 4557 0
4558 -4483 -4557 0
-4559 4486 0
-4559 4558 0
4559 -4486 -4558 0
-4560 4489 0
-4560 4559 0
4560 -4489 -4559 0
-4561 4492 0
-4561 4560 0
4561 -4492 -4560 0
-4562 4495 0
-4562 4561 0
4562 -4495 -4561 0
-4563 4498 0
-4563 4562 0
4563 -4498 -4562 0
-4564 4501 0
-4564 4563 0
4564 -4501 -4563 0
-4565 4504 0
-4565 4564 0
4565 -4504 -4564 0
-4566 -4318 0
-4566 4565 0
4566 4318 -4565 0
-4567 2398 0
-4567 -4566 0
4567 -2398 4566 0
-4568 4255 0
-4568 -4567 0
4568 -4255 4567 0
-4752 -2503 0
-4752 4317 0
4752 2503 -4317 0
-4753 2503 0
-4753 -4317 0
4753 -2503 4317 0
-4754 -4752 0
-4754 -4753 0
4754 4752 4753 0
-4749 -2502 0
-4749 4316 0
4749 2502 -4316 0
-4750 2502 0
-4750 -4316 0
4750 -2502 4316 0
-4751 -4749 0
-4751 -4750 0
4751 4749 4750 0
-4746 -2501 0
-4746 4315 0
4746 2501 -4315 0
-4747 2501 0
-4747 -4315 0
4747 -2501 4315 0
-4748 -4746 0
-4748 -4747 0
4748 4746 4747 0
-4743 -2500 0
-4743 4314 0
4743 2500 -4314 0
-4744 2500 0
-4744 -4314 0
4744 -2500 4314 0
-4745 -4743 0
-4745 -4744 0
4745 4743 4744 0
-4740 -2499 0
-4740 4313 0
4740 2499 -4313 0
-4741 2499 0
-4741 -4313 0
4741 -2499 4313 0
-4742 -4740 0
-4742 -4741 0
4742 4740 4741 0
-4737 -2498 0
-4737 4312 0
4737 2498 -4312 0
-4738 2498 0
-4738 -4312 0
4738 -2498 4312 0
-4739 -4737 0
-4739 -4738 0
4739 4737 4738 0
-4734 -2497 0
-4734 4311 0
4734 2497 -4311 0
-4735 2497 0
-4735 -4311 0
4735 -2497 4311 0
-4736 -4734 0
-4736 -4735 0
4736 4734 4735 0
-4731 -2496 0
-4731 4310 0
4731 2496 -4310 0
-4732 2496 0
-4732 -4310 0
4732 -2496 4310 0
-4733 -4731 0
-4733 -4732 0
4733 4731 4732 0
-4728 -2495 0
-4728 4309 0
4728 2495 -4309 0
-4729 2495 0
-4729 -4309 0
4729 -2495 4309 0
-4730 -4728 0
-4730 -4729 0
4730 4728 4729 0
-4725 -2494 0
-4725 4308 0
4725 2494 -4308 0
-4726 2494 0
-4726 -4308 0
4726 -2494 4308 0
-4727 -4725 0
-4727 -4726 0
4727 4725 4726 0
-4722 -2493 0
-4722 4307 0
4722 2493 -4307 0
-4723 2493 0
-4723 -4307 0
4723 -2493 4307 0
-4724 -4722 0
-4724 -4723 0
4724 4722 4723 0
-4719 -2492 0
-4719 4306 0
4719 2492 -4306 0
-4720 2492 0
-4720 -4306 0
4720 -2492 4306 0
-4721 -4719 0
-4721 -4720 0
4721 4719 4720 0
-4716 -2491 0
-4716 4305 0
4716 2491 -4305 0
-4717 2491 0
-4717 -4305 0
4717 -2491 4305 0
-4718 -4716 0
-4718 -4717 0
4718 4716 4717 0
-4713 -2490 0
-4713 4304 0
4713 2490 -4304 0
-4714 2490 0
-4714 -4304 0
4714 -2490 4304 0
-4715 -4713 0
-4715 -4714 0
4715 4713 4714 0
-4710 -2489 0
-4710 4303 0
4710 2489 -4303 0
-4711 2489 0
-4711 -4303 0
4711 -2489 4303 0
-4712 -4710 0
-4712 -4711 0
4712 4710 4711 0
-4707 -2488 0
-4707 4302 0
4707 2488 -4302 0
-4708 2488 0
-4708 -4302 0
4708 -2488 4302 0
-4709 -4707 0
-4709 -4708 0
4709 4707 4708 0
-4704 -2487 0
-4704 4301 0
4704 2487 -4301 0
-4705 2487 0
-4705 -4301 0
4705 -2487 4301 0
-4706 -4704 0
-4706 -4705 0
4706 4704 4705 0
-4701 -2486 0
-4701 4300 0
4701 2486 -4300 0
-4702 2486 0
-4702 -4300 0
4702 -2486 4300 0
-4703 -4701 0
-4703 -4702 0
4703 4701 4702 0
-4698 -2485 0
-4698 4299 0
4698 2485 -4299 0
-4699 2485 0
-4699 -4299 0
4699 -2485 4299 0
-4700 -4698 0
-4700 -4699 0
4700 4698 4699 0
-4695 -2484 0
-4695 4298 0
4695 2484 -4298 0
-4696 2484 0
-4696 -4298 0
4696 -2484 4298 0
-4697 -4695 0
-4697 -4696 0
4697 4695 4696 0
-4692 -2483 0
-4692 4297 0
4692 2483 -4297 0
-4693 2483 0
-4693 -4297 0
4693 -2483 4297 0
-4694 -4692 0
-4694 -4693 0
4694 4692 4693 0
-4689 -2482 0
-4689 4296 0
4689 2482 -4296 0
-4690 2482 0
-4690 -4296 0
4690 -2482 4296 0
-4691 -4689 0
-4691 -4690 0
4691 4689 4690 0
-4686 -2481 0
-4686 4295 0
4686 2481 -4295 0
-4687 2481 0
-4687 -4295 0
4687 -2481 4295 0
-4688 -4686 0
-4688 -4687 0
4688 4686 4687 0
-4683 -2480 0
-4683 4294 0
4683 2480 -4294 0
-4684 2480 0
-4684 -4294 0
4684 -2480 4294 0
-4685 -4683 0
-4685 -4684 0
4685 4683 4684 0
-4680 -2479 0
-4680 4293 0
4680 2479 -4293 0
-4681 2479 0
-4681 -4293 0
4681 -2479 4293 0
-4682 -4680 0
-4682 -4681 0
4682 4680 4681 0
-4677 -2478 0
-4677 4292 0
4677 2478 -4292 0
-4678 2478 0
-4678 -4292 0
4678 -2478 4292 0
-4679 -4677 0
-4679 -4678 0
4679 4677 4678 0
-4674 -2477 0
-4674 4291 0
4674 2477 -4291 0
-4675 2477 0
-4675 -4291 0
4675 -2477 4291 0
-4676 -4674 0
-4676 -4675 0
4676 4674 4675 0
-4671 -2476 0
-4671 4290 0
4671 2476 -4290 0
-4672 2476 0
-4672 -4290 0
4672 -2476 4290 0
-4673 -4671 0
-4673 -4672 0
4673 4671 4672 0
-4668 -2475 0
-4668 4289 0
4668 2475 -4289 0
-4669 2475 0
-4669 -4289 0
4669 -2475 4289 0
-4670 -4668 0
-4670 -4669 0
4670 4668 4669 0
-4665 -2474 0
-4665 4288 0
4665 2474 -4288 0
-4666 2474 0
-4666 -4288 0
4666 -2474 4288 0
-4667 -4665 0
-4667 -4666 0
4667 4665 4666 0
-4662 -2473 0
-4662 4287 0
4662 2473 -4287 0
-4663 2473 0
-4663 -4287 0
4663 -2473 4287 0
-4664 -4662 0
-4664 -4663 0
4664 4662 4663 0
-4659 -2472 0
-4659 4286 0
4659 2472 -4286 0
-4660 2472 0
-4660 -4286 0
4660 -2472 4286 0
-4661 -4659 0
-4661 -4660 0
4661 4659 4660 0
-4656 -2471 0
-4656 4285 0
4656 2471 -4285 0
-4657 2471 0
-4657 -4285 0
4657 -2471 4285 0
-4658 -4656 0
-4658 -4657 0
4658 4656 4657 0
-4653 -2470 0
-4653 4284 0
4653 2470 -4284 0
-4654 2470 0
-4654 -4284 0
4654 -2470 4284 0
-4655 -4653 0
-4655 -4654 0
4655 4653 4654 0
-4650 -2469 0
-4650 4283 0
4650 2469 -4283 0
-4651 2469 0
-4651 -4283 0
4651 -2469 4283 0
-4652 -4650 0
-4652 -4651 0
4652 4650 4651 0
-4647 -2468 0
-4647 4282 0
4647 2468 -4282 0
-4648 2468 0
-4648 -4282 0
4648 -2468 4282 0
-4649 -4647 0
-4649 -4648 0
4649 4647 4648 0
-4644 -2467 0
-4644 4281 0
4644 2467 -4281 0
-4645 2467 0
-4645 -4281 0
4645 -2467 4281 0
-4646 -4644 0
-4646 -4645 0
4646 4644 4645 0
-4641 -2466 0
-4641 4280 0
4641 2466 -4280 0
-4642 2466 0
-4642 -4280 0
4642 -2466 4280 0
-4643 -4641 0
-4643 -4642 0
4643 4641 4642 0
-4638 -2465 0
-4638 4279 0
4638 2465 -4279 0
-4639 2465 0
-4639 -4279 0
4639 -2465 4279 0
-4640 -4638 0
-4640 -4639 0
4640 4638 4639 0
-4635 -2464 0
-4635 4278 0
4635 2464 -4278 0
-4636 2464 0
-4636 -4278 0
4636 -2464 4278 0
-4637 -4635 0
-4637 -4636 0
4637 4635 4636 0
-4632 -2463 0
-4632 4277 0
4632 2463 -4277 0
-4633 2463 0
-4633 -4277 0
4633 -2463 4277 0
-4634 -4632 0
-4634 -4633 0
4634 4632 4633 0
-4629 -2462 0
-4629 4276 0
4629 2462 -4276 0
-4630 2462 0
-4630 -4276 0
4630 -2462 4276 0
-4631 -4629 0
-4631 -4630 0
4631 4629 4630 0
-4626 -2461 0
-4626 4275 0
4626 2461 -4275 0
-4627 2461 0
-4627 -4275 0
4627 -2461 4275 0
-4628 -4626 0
-4628 -4627 0
4628 4626 4627 0
-4623 -2460 0
-4623 4274 0
4623 2460 -4274 0
-4624 2460 0
-4624 -4274 0
4624 -2460 4274 0
-4625 -4623 0
-4625 -4624 0
4625 4623 4624 0
-4620 -2459 0
-4620 4273 0
4620 2459 -4273 0
-4621 2459 0
-4621 -4273 0
4621 -2459 4273 0
-4622 -4620 0
-4622 -4621 0
4622 4620 4621 0
-4617 -2458 0
-4617 4272 0
4617 2458 -4272 0
-4618 2458 0
-4618 -4272 0
4618 -2458 4272 0
-4619 -4617 0
-4619 -4618 0
4619 4617 4618 0
-4614 -2457 0
-4614 4271 0
4614 2457 -4271 0
-4615 2457 0
-4615 -4271 0
4615 -2457 4271 0
-4616 -4614 0
-4616 -4615 0
4616 4614 4615 0
-4611 -2456 0
-4611 4270 0
4611 2456 -4270 0
-4612 2456 0
-4612 -4270 0
4612 -2456 4270 0
-4613 -4611 0
-4613 -4612 0
4613 4611 4612 0
-4608 -2455 0
-4608 4269 0
4608 2455 -4269 0
-4609 2455 0
-4609 -4269 0
4609 -2455 4269 0
-4610 -4608 0
-4610 -4609 0
4610 4608 4609 0
-4605 -2454 0
-4605 4268 0
4605 2454 -4268 0
-4606 2454 0
-4606 -4268 0
4606 -2454 4268 0
-4607 -4605 0
-4607 -4606 0
4607 4605 4606 0
-4602 -2453 0
-4602 4267 0
4602 2453 -4267 0
-4603 2453 0
-4603 -4267 0
4603 -2453 4267 0
-4604 -4602 0
-4604 -4603 0
4604 4602 4603 0
-4599 -2452 0
-4599 4266 0
4599 2452 -4266 0
-4600 2452 0
-4600 -4266 0
4600 -2452 4266 0
-4601 -4599 0
-4601 -4600 0
4601 4599 4600 0
-4596 -2451 0
-4596 4265 0
4596 2451 -4265 0
-4597 2451 0
-4597 -4265 0
4597 -2451 4265 0
-4598 -4596 0
-4598 -4597 0
4598 4596 4597 0
-4593 -2450 0
-4593 4264 0
4593 2450 -4264 0
-4594 2450 0
-4594 -4264 0
4594 -2450 4264 0
-4595 -4593 0
-4595 -4594 0
4595 4593 4594 0
-4590 -2449 0
-4590 4263 0
4590 2449 -4263 0
-4591 2449 0
-4591 -4263 0
4591 -2449 4263 0
-4592 -4590 0
-4592 -4591 0
4592 4590 4591 0
-4587 -2448 0
-4587 4262 0
4587 2448 -4262 0
-4588 2448 0
-4588 -4262 0
4588 -2448 4262 0
-4589 -4587 0
-4589 -4588 0
4589 4587 4588 0
-4584 -2447 0
-4584 4261 0
4584 2447 -4261 0
-4585 2447 0
-4585 -4261 0
4585 -2447 4261 0
-4586 -4584 0
-4586 -4585 0
4586 4584 4585 0
-4581 -2446 0
-4581 4260 0
4581 2446 -4260 0
-4582 2446 0
-4582 -4260 0
4582 -2446 4260 0
-4583 -4581 0
-4583 -4582 0
4583 4581 4582 0
-4578 -2445 0
-4578 4259 0
4578 2445 -4259 0
-4579 2445 0
-4579 -4259 0
4579 -2445 4259 0
-4580 -4578 0
-4580 -4579 0
4580 4578 4579 0
-4575 -2444 0
-4575 4258 0
4575 2444 -4258 0
-4576 2444 0
-4576 -4258 0
4576 -2444 4258 0
-4577 -4575 0
-4577 -4576 0
4577 4575 4576 0
-4569 -2442 0
-4569 4256 0
4569 2442 -4256 0
-4570 2442 0
-4570 -4256 0
4570 -2442 4256 0
-4571 -4569 0
-4571 -4570 0
4571 4569 4570 0
-4572 -2443 0
-4572 4257 0
4572 2443 -4257 0
-4573 2443 0
-4573 -4257 0
4573 -2443 4257 0
-4574 -4572 0
-4574 -4573 0
4574 4572 4573 0
-4755 4571 0
-4755 4574 0
4755 -4571 -4574 0
-4756 4577 0
-4756 4755 0
4756 -4577 -4755 0
-4757 4580 0
-4757 4756 0
4757 -4580 -4756 0
-4758 4583 0
-4758 4757 0
4758 -4583 -4757 0
-4759 4586 0
-4759 4758 0
4759 -4586 -4758 0
-4760 4589 0
-4760 4759 0
4760 -4589 -4759 0
-4761 4592 0
-4761 4760 0
4761 -4592 -4760 0
-4762 4595 0
-4762 4761 0
4762 -4595 -4761 0
-4763 4598 0
-4763 4762 0
4763 -4598 -4762 0
-4764 4601 0
-4764 4763 0
4764 -4601 -4763 0
-4765 4604 0
-4765 4764 0
4765 -4604 -4764 0
-4766 4607 0
-4766 4765 0
4766 -4607 -4765 0
-4767 4610 0
-4767 4766 0
4767 -4610 -4766 0
-4768 4613 0
-4768 4767 0
4768 -4613 -4767 0
-4769 4616 0
-4769 4768 0
4769 -4616 -4768 0
-4770 4619 0
-4770 4769 0
4770 -4619 -4769 0
-4771 4622 0
-4771 4770 0
4771 -4622 -4770 0
-4772 4625 0
-4772 4771 0
4772 -4625 -4771 0
-4773 4628 0
-4773 4772 0
4773 -4628 -4772 0
-4774 4631 0
-4774 4773 0
4774 -4631 -4773 0
-4775 4634 0
-4775 4774 0
4775 -4634 -4774 0
-4776 4637 0
-4776 4775 0
4776 -4637 -4775 0
-4777 4640 0
-4777 4776 0
4777 -4640 -4776 0
-4778 4643 0
-4778 4777 0
4778 -4643 -4777 0
-4779 4646 0
-4779 4778 0
4779 -4646 -4778 0
-4780 4649 0
-4780 4779 0
4780 -4649 -4779 0
-4781 4652 0
-4781 4780 0
4781 -4652 -4780 0
-4782 4655 0
-4782 4781 0
4782 -4655 -4781 0
-4783 4658 0
-4783 4782 0
4783 -4658 -4782 0
-4784 4661 0
-4784 4783 0
4784 -4661 -4783 0
-4785 4664 0
-4785 4784 0
4785 -4664 -4784 0
-4786 4667 0
-4786 4785 0
4786 -4667 -4785 0
-4787 4670 0
-4787 4786 0
4787 -4670 -4786 0
-4788 4673 0
-4788 4787 0
4788 -4673 -4787 0
-4789 4676 0
-4789 4788 0
4789 -4676 -4788 0
-4790 4679 0
-4790 4789 0
4790 -4679 -4789 0
-4791 4682 0
-4791 4790 0
4791 -4682 -4790 0
-4792 4685 0
-4792 4791 0
4792 -4685 -4791 0
-4793 4688 0
-4793 4792 0
4793 -4688 -4792 0
-4794 4691 0
-4794 4793 0
4794 -4691 -4793 0
-4795 4694 0
-4795 4794 0
4795 -4694 -4794 0
-4796 4697 0
-4796 4795 0
4796 -4697 -4795 0
-4797 4700 0
-4797 4796 0
4797 -4700 -4796 0
-4798 4703 0
-4798 4797 0
4798 -4703 -4797 0
-4799 4706 0
-4799 4798 0
4799 -4706 -4798 0
-4800 4709 0
-4800 4799 0
4800 -4709 -4799 0
-4801 4712 0
-4801 4800 0
4801 -4712 -4800 0
-4802 4715 0
-4802 4801 0
4802 -4715 -4801 0
-4803 4718 0
-4803 4802 0
4803 -4718 -4802 0
-4804 4721 0
-4804 4803 0
4804 -4721 -4803 0
-4805 4724 0
-4805 4804 0
4805 -4724 -4804 0
-4806 4727 0
-4806 4805 0
4806 -4727 -4805 0
-4807 4730 0
-4807 4806 0
4807 -4730 -4806 0
-4808 4733 0
-4808 4807 0
4808 -4733 -4807 0
-4809 4736 0
-4809 4808 0
4809 -4736 -4808 0
-4810 4739 0
-4810 4809 0
4810 -4739 -4809 0
-4811 4742 0
-4811 4810 0
4811 -4742 -4810 0
-4812 4745 0
-4812 4811 0
4812 -4745 -4811 0
-4813 4748 0
-4813 4812 0
4813 -4748 -4812 0
-4814 4751 0
-4814 4813 0
4814 -4751 -4813 0
-4815 4754 0
-4815 4814 0
4815 -4754 -4814 0
-4816 -4318 0
-4816 4815 0
4816 4318 -4815 0
-4817 -2398 0
-4817 -4816 0
4817 2398 4816 0
-4818 4568 0
-4818 -4817 0
4818 -4568 4817 0
4882 -16776 0
-4882 16776 0
4881 -16775 0
-4881 16775 0
-5306 3065 0
-5306 3066 0
5306 -3065 -3066 0
-5299 3064 0
-5299 3065 0
5299 -3064 -3065 0
-5292 3063 0
-5292 3064 0
5292 -3063 -3064 0
-5285 3062 0
-5285 3063 0
5285 -3062 -3063 0
-5278 3061 0
-5278 3062 0
5278 -3061 -3062 0
-5271 3060 0
-5271 3061 0
5271 -3060 -3061 0
-5264 3059 0
-5264 3060 0
5264 -3059 -3060 0
-5257 3058 0
-5257 3059 0
5257 -3058 -3059 0
-5250 3057 0
-5250 3058 0
5250 -3057 -3058 0
-5243 3056 0
-5243 3057 0
5243 -3056 -3057 0
-5236 3055 0
-5236 3056 0
5236 -3055 -3056 0
-5229 3054 0
-5229 3055 0
5229 -3054 -3055 0
-5222 3053 0
-5222 3054 0
5222 -3053 -3054 0
-5215 3052 0
-5215 3053 0
5215 -3052 -3053 0
-5208 3051 0
-5208 3052 0
5208 -3051 -3052 0
-5201 3050 0
-5201 3051 0
5201 -3050 -3051 0
-5194 3049 0
-5194 3050 0
5194 -3049 -3050 0
-5187 3048 0
-5187 3049 0
5187 -3048 -3049 0
-5180 3047 0
-5180 3048 0
5180 -3047 -3048 0
-5173 3046 0
-5173 3047 0
5173 -3046 -3047 0
-5166 3045 0
-5166 3046 0
5166 -3045 -3046 0
-5159 3044 0
-5159 3045 0
5159 -3044 -3045 0
-5152 3043 0
-5152 3044 0
5152 -3043 -3044 0
-5145 3042 0
-5145 3043 0
5145 -3042 -3043 0
-5138 3041 0
-5138 3042 0
5138 -3041 -3042 0
-5131 3040 0
-5131 3041 0
5131 -3040 -3041 0
-5124 3039 0
-5124 3040 0
5124 -3039 -3040 0
-5117 3038 0
-5117 3039 0
5117 -3038 -3039 0
-5110 3037 0
-5110 3038 0
5110 -3037 -3038 0
-5103 3036 0
-5103 3037 0
5103 -3036 -3037 0
-5096 3035 0
-5096 3036 0
5096 -3035 -3036 0
-5089 3034 0
-5089 3035 0
5089 -3034 -3035 0
-5082 3033 0
-5082 3034 0
5082 -3033 -3034 0
-5075 3032 0
-5075 3033 0
5075 -3032 -3033 0
-5068 3031 0
-5068 3032 0
5068 -3031 -3032 0
-5061 3030 0
-5061 3031 0
5061 -3030 -3031 0
-5054 3029 0
-5054 3030 0
5054 -3029 -3030 0
-5047 3028 0
-5047 3029 0
5047 -3028 -3029 0
-5040 3027 0
-5040 3028 0
5040 -3027 -3028 0
-5033 3026 0
-5033 3027 0
5033 -3026 -3027 0
-5026 3025 0
-5026 3026 0
5026 -3025 -3026 0
-5019 3024 0
-5019 3025 0
5019 -3024 -3025 0
-5012 3023 0
-5012 3024 0
5012 -3023 -3024 0
-5005 3022 0
-5005 3023 0
5005 -3022 -3023 0
-4998 3021 0
-4998 3022 0
4998 -3021 -3022 0
-4991 3020 0
-4991 3021 0
4991 -3020 -3021 0
-4984 3019 0
-4984 3020 0
4984 -3019 -3020 0
-4977 3018 0
-4977 3019 0
4977 -3018 -3019 0
-4970 3017 0
-4970 3018 0
4970 -3017 -3018 0
-4963 3016 0
-4963 3017 0
4963 -3016 -3017 0
-4956 3015 0
-4956 3016 0
4956 -3015 -3016 0
-4949 3014 0
-4949 3015 0
4949 -3014 -3015 0
-4942 3013 0
-4942 3014 0
4942 -3013 -3014 0
-4935 3012 0
-4935 3013 0
4935 -3012 -3013 0
-4928 3011 0
-4928 3012 0
4928 -3011 -3012 0
-4921 3010 0
-4921 3011 0
4921 -3010 -3011 0
-4914 3009 0
-4914 3010 0
4914 -3009 -3010 0
-4907 3008 0
-4907 3009 0
4907 -3008 -3009 0
-4900 3007 0
-4900 3008 0
4900 -3007 -3008 0
-4893 3006 0
-4893 3007 0
4893 -3006 -3007 0
-4886 3005 0
-4886 3006 0
4886 -3005 -3006 0
-4883 3004 0
-4883 3005 0
4883 -3004 -3005 0
-4887 -3005 0
-4887 -3006 0
4887 3005 3006 0
-4888 -4886 0
-4888 -4887 0
4888 4886 4887 0
-4889 4883 0
-4889 4888 0
4889 -4883 -4888 0
-4892 -4886 0
-4892 -4889 0
4892 4886 4889 0
-4894 -3006 0
-4894 -3007 0
4894 3006 3007 0
-4895 -4893 0
-4895 -4894 0
4895 4893 4894 0
-4896 -4892 0
-4896 4895 0
4896 4892 -4895 0
-4899 -4893 0
-4899 -4896 0
4899 4893 4896 0
-4901 -3007 0
-4901 -3008 0
4901 3007 3008 0
-4902 -4900 0
-4902 -4901 0
4902 4900 4901 0
-4903 -4899 0
-4903 4902 0
4903 4899 -4902 0
-4906 -4900 0
-4906 -4903 0
4906 4900 4903 0
-4908 -3008 0
-4908 -3009 0
4908 3008 3009 0
-4909 -4907 0
-4909 -4908 0
4909 4907 4908 0
-4910 -4906 0
-4910 4909 0
4910 4906 -4909 0
-4913 -4907 0
-4913 -4910 0
4913 4907 4910 0
-4915 -3009 0
-4915 -3010 0
4915 3009 3010 0
-4916 -4914 0
-4916 -4915 0
4916 4914 4915 0
-4917 -4913 0
-4917 4916 0
4917 4913 -4916 0
-4920 -4914 0
-4920 -4917 0
4920 4914 4917 0
-4922 -3010 0
-4922 -3011 0
4922 3010 3011 0
-4923 -4921 0
-4923 -4922 0
4923 4921 4922 0
-4924 -4920 0
-4924 4923 0
4924 4920 -4923 0
-4927 -4921 0
-4927 -4924 0
4927 4921 4924 0
-4929 -3011 0
-4929 -3012 0
4929 3011 3012 0
-4930 -4928 0
-4930 -4929 0
4930 4928 4929 0
-4931 -4927 0
-4931 4930 0
4931 4927 -4930 0
-4934 -4928 0
-4934 -4931 0
4934 4928 4931 0
-4936 -3012 0
-4936 -3013 0
4936 3012 3013 0
-4937 -4935 0
-4937 -4936 0
4937 4935 4936 0
-4938 -4934 0
-4938 4937 0
4938 4934 -4937 0
-4941 -4935 0
-4941 -4938 0
4941 4935 4938 0
-4943 -3013 0
-4943 -3014 0
4943 3013 3014 0
-4944 -4942 0
-4944 -4943 0
4944 4942 4943 0
-4945 -4941 0
-4945 4944 0
4945 4941 -4944 0
-4948 -4942 0
-4948 -4945 0
4948 4942 4945 0
-4950 -3014 0
-4950 -3015 0
4950 3014 3015 0
-4951 -4949 0
-4951 -4950 0
4951 4949 4950 0
-4952 -4948 0
-4952 4951 0
4952 4948 -4951 0
-4955 -4949 0
-4955 -4952 0
4955 4949 4952 0
-4957 -3015 0
-4957 -3016 0
4957 3015 3016 0
-4958 -4956 0
-4958 -4957 0
4958 4956 4957 0
-4959 -4955 0
-4959 4958 0
4959 4955 -4958 0
-4962 -4956 0
-4962 -4959 0
4962 4956 4959 0
-4964 -3016 0
-4964 -3017 0
4964 3016 3017 0
-4965 -4963 0
-4965 -4964 0
4965 4963 4964 0
-4966 -4962 0
-4966 4965 0
4966 4962 -4965 0
-4969 -4963 0
-4969 -4966 0
4969 4963 4966 0
-4971 -3017 0
-4971 -3018 0
4971 3017 3018 0
-4972 -4970 0
-4972 -4971 0
4972 4970 4971 0
-4973 -4969 0
-4973 4972 0
4973 4969 -4972 0
-4976 -4970 0
-4976 -4973 0
4976 4970 4973 0
-4978 -3018 0
-4978 -3019 0
4978 3018 3019 0
-4979 -4977 0
-4979 -4978 0
4979 4977 4978 0
-4980 -4976 0
-4980 4979 0
4980 4976 -4979 0
-4983 -4977 0
-4983 -4980 0
4983 4977 4980 0
-4985 -3019 0
-4985 -3020 0
4985 3019 3020 0
-4986 -4984 0
-4986 -4985 0
4986 4984 4985 0
-4987 -4983 0
-4987 4986 0
4987 4983 -4986 0
-4990 -4984 0
-4990 -4987 0
4990 4984 4987 0
-4992 -3020 0
-4992 -3021 0
4992 3020 3021 0
-4993 -4991 0
-4993 -4992 0
4993 4991 4992 0
-4994 -4990 0
-4994 4993 0
4994 4990 -4993 0
-4997 -4991 0
-4997 -4994 0
4997 4991 4994 0
-4999 -3021 0
-4999 -3022 0
4999 3021 3022 0
-5000 -4998 0
-5000 -4999 0
5000 4998 4999 0
-5001 -4997 0
-5001 5000 0
5001 4997 -5000 0
-5004 -4998 0
-5004 -5001 0
5004 4998 5001 0
-5006 -3022 0
-5006 -3023 0
5006 3022 3023 0
-5007 -5005 0
-5007 -5006 0
5007 5005 5006 0
-5008 -5004 0
-5008 5007 0
5008 5004 -5007 0
-5011 -5005 0
-5011 -5008 0
5011 5005 5008 0
-5013 -3023 0
-5013 -3024 0
5013 3023 3024 0
-5014 -5012 0
-5014 -5013 0
5014 5012 5013 0
-5015 -5011 0
-5015 5014 0
5015 5011 -5014 0
-5018 -5012 0
-5018 -5015 0
5018 5012 5015 0
-5020 -3024 0
-5020 -3025 0
5020 3024 3025 0
-5021 -5019 0
-5021 -5020 0
5021 5019 5020 0
-5022 -5018 0
-5022 5021 0
5022 5018 -5021 0
-5025 -5019 0
-5025 -5022 0
5025 5019 5022 0
-5027 -3025 0
-5027 -3026 0
5027 3025 3026 0
-5028 -5026 0
-5028 -5027 0
5028 5026 5027 0
-5029 -5025 0
-5029 5028 0
5029 5025 -5028 0
-5032 -5026 0
-5032 -5029 0
5032 5026 5029 0
-5034 -3026 0
-5034 -3027 0
5034 3026 3027 0
-5035 -5033 0
-5035 -5034 0
5035 5033 5034 0
-5036 -5032 0
-5036 5035 0
5036 5032 -5035 0
-5039 -5033 0
-5039 -5036 0
5039 5033 5036 0
-5041 -3027 0
-5041 -3028 0
5041 3027 3028 0
-5042 -5040 0
-5042 -5041 0
5042 5040 5041 0
-5043 -5039 0
-5043 5042 0
5043 5039 -5042 0
-5046 -5040 0
-5046 -5043 0
5046 5040 5043 0
-5048 -3028 0
-5048 -3029 0
5048 3028 3029 0
-5049 -5047 0
-5049 -5048 0
5049 5047 5048 0
-5050 -5046 0
-5050 5049 0
5050 5046 -5049 0
-5053 -5047 0
-5053 -5050 0
5053 5047 5050 0
-5055 -3029 0
-5055 -3030 0
5055 3029 3030 0
-5056 -5054 0
-5056 -5055 0
5056 5054 5055 0
-5057 -5053 0
-5057 5056 0
5057 5053 -5056 0
-5060 -5054 0
-5060 -5057 0
5060 5054 5057 0
-5062 -3030 0
-5062 -3031 0
5062 3030 3031 0
-5063 -5061 0
-5063 -5062 0
5063 5061 5062 0
-5064 -5060 0
-5064 5063 0
5064 5060 -5063 0
-5067 -5061 0
-5067 -5064 0
5067 5061 5064 0
-5069 -3031 0
-5069 -3032 0
5069 3031 3032 0
-5070 -5068 0
-5070 -5069 0
5070 5068 5069 0
-5071 -5067 0
-5071 5070 0
5071 5067 -5070 0
-5074 -5068 0
-5074 -5071 0
5074 5068 5071 0
-5076 -3032 0
-5076 -3033 0
5076 3032 3033 0
-5077 -5075 0
-5077 -5076 0
5077 5075 5076 0
-5078 -5074 0
-5078 5077 0
5078 5074 -5077 0
-5081 -5075 0
-5081 -5078 0
5081 5075 5078 0
-5083 -3033 0
-5083 -3034 0
5083 3033 3034 0
-5084 -5082 0
-5084 -5083 0
5084 5082 5083 0
-5085 -5081 0
-5085 5084 0
5085 5081 -5084 0
-5088 -5082 0
-5088 -5085 0
5088 5082 5085 0
-5090 -3034 0
-5090 -3035 0
5090 3034 3035 0
-5091 -5089 0
-5091 -5090 0
5091 5089 5090 0
-5092 -5088 0
-5092 5091 0
5092 5088 -5091 0
-5095 -5089 0
-5095 -5092 0
5095 5089 5092 0
-5097 -3035 0
-5097 -3036 0
5097 3035 3036 0
-5098 -5096 0
-5098 -5097 0
5098 5096 5097 0
-5099 -5095 0
-5099 5098 0
5099 5095 -5098 0
-5102 -5096 0
-5102 -5099 0
5102 5096 5099 0
-5104 -3036 0
-5104 -3037 0
5104 3036 3037 0
-5105 -5103 0
-5105 -5104 0
5105 5103 5104 0
-5106 -5102 0
-5106 5105 0
5106 5102 -5105 0
-5109 -5103 0
-5109 -5106 0
5109 5103 5106 0
-5111 -3037 0
-5111 -3038 0
5111 3037 3038 0
-5112 -5110 0
-5112 -5111 0
5112 5110 5111 0
-5113 -5109 0
-5113 5112 0
5113 5109 -5112 0
-5116 -5110 0
-5116 -5113 0
5116 5110 5113 0
-5118 -3038 0
-5118 -3039 0
5118 3038 3039 0
-5119 -5117 0
-5119 -5118 0
5119 5117 5118 0
-5120 -5116 0
-5120 5119 0
5120 5116 -5119 0
-5123 -5117 0
-5123 -5120 0
5123 5117 5120 0
-5125 -3039 0
-5125 -3040 0
5125 3039 3040 0
-5126 -5124 0
-5126 -5125 0
5126 5124 5125 0
-5127 -5123 0
-5127 5126 0
5127 5123 -5126 0
-5130 -5124 0
-5130 -5127 0
5130 5124 5127 0
-5132 -3040 0
-5132 -3041 0
5132 3040 3041 0
-5133 -5131 0
-5133 -5132 0
5133 5131 5132 0
-5134 -5130 0
-5134 5133 0
5134 5130 -5133 0
-5137 -5131 0
-5137 -5134 0
5137 5131 5134 0
-5139 -3041 0
-5139 -3042 0
5139 3041 3042 0
-5140 -5138 0
-5140 -5139 0
5140 5138 5139 0
-5141 -5137 0
-5141 5140 0
5141 5137 -5140 0
-5144 -5138 0
-5144 -5141 0
5144 5138 5141 0
-5146 -3042 0
-5146 -3043 0
5146 3042 3043 0
-5147 -5145 0
-5147 -5146 0
5147 5145 5146 0
-5148 -5144 0
-5148 5147 0
5148 5144 -5147 0
-5151 -5145 0
-5151 -5148 0
5151 5145 5148 0
-5153 -3043 0
-5153 -3044 0
5153 3043 3044 0
-5154 -5152 0
-5154 -5153 0
5154 5152 5153 0
-5155 -5151 0
-5155 5154 0
5155 5151 -5154 0
-5158 -5152 0
-5158 -5155 0
5158 5152 5155 0
-5160 -3044 0
-5160 -3045 0
5160 3044 3045 0
-5161 -5159 0
-5161 -5160 0
5161 5159 5160 0
-5162 -5158 0
-5162 5161 0
5162 5158 -5161 0
-5165 -5159 0
-5165 -5162 0
5165 5159 5162 0
-5167 -3045 0
-5167 -3046 0
5167 3045 3046 0
-5168 -5166 0
-5168 -5167 0
5168 5166 5167 0
-5169 -5165 0
-5169 5168 0
5169 5165 -5168 0
-5172 -5166 0
-5172 -5169 0
5172 5166 5169 0
-5174 -3046 0
-5174 -3047 0
5174 3046 3047 0
-5175 -5173 0
-5175 -5174 0
5175 5173 5174 0
-5176 -5172 0
-5176 5175 0
5176 5172 -5175 0
-5179 -5173 0
-5179 -5176 0
5179 5173 5176 0
-5181 -3047 0
-5181 -3048 0
5181 3047 3048 0
-5182 -5180 0
-5182 -5181 0
5182 5180 5181 0
-5183 -5179 0
-5183 5182 0
5183 5179 -5182 0
-5186 -5180 0
-5186 -5183 0
5186 5180 5183 0
-5188 -3048 0
-5188 -3049 0
5188 3048 3049 0
-5189 -5187 0
-5189 -5188 0
5189 5187 5188 0
-5190 -5186 0
-5190 5189 0
5190 5186 -5189 0
-5193 -5187 0
-5193 -5190 0
5193 5187 5190 0
-5195 -3049 0
-5195 -3050 0
5195 3049 3050 0
-5196 -5194 0
-5196 -5195 0
5196 5194 5195 0
-5197 -5193 0
-5197 5196 0
5197 5193 -5196 0
-5200 -5194 0
-5200 -5197 0
5200 5194 5197 0
-5202 -3050 0
-5202 -3051 0
5202 3050 3051 0
-5203 -5201 0
-5203 -5202 0
5203 5201 5202 0
-5204 -5200 0
-5204 5203 0
5204 5200 -5203 0
-5207 -5201 0
-5207 -5204 0
5207 5201 5204 0
-5209 -3051 0
-5209 -3052 0
5209 3051 3052 0
-5210 -5208 0
-5210 -5209 0
5210 5208 5209 0
-5211 -5207 0
-5211 5210 0
5211 5207 -5210 0
-5214 -5208 0
-5214 -5211 0
5214 5208 5211 0
-5216 -3052 0
-5216 -3053 0
5216 3052 3053 0
-5217 -5215 0
-5217 -5216 0
5217 5215 5216 0
-5218 -5214 0
-5218 5217 0
5218 5214 -5217 0
-5221 -5215 0
-5221 -5218 0
5221 5215 5218 0
-5223 -3053 0
-5223 -3054 0
5223 3053 3054 0
-5224 -5222 0
-5224 -5223 0
5224 5222 5223 0
-5225 -5221 0
-5225 5224 0
5225 5221 -5224 0
-5228 -5222 0
-5228 -5225 0
5228 5222 5225 0
-5230 -3054 0
-5230 -3055 0
5230 3054 3055 0
-5231 -5229 0
-5231 -5230 0
5231 5229 5230 0
-5232 -5228 0
-5232 5231 0
5232 5228 -5231 0
-5235 -5229 0
-5235 -5232 0
5235 5229 5232 0
-5237 -3055 0
-5237 -3056 0
5237 3055 3056 0
-5238 -5236 0
-5238 -5237 0
5238 5236 5237 0
-5239 -5235 0
-5239 5238 0
5239 5235 -5238 0
-5242 -5236 0
-5242 -5239 0
5242 5236 5239 0
-5244 -3056 0
-5244 -3057 0
5244 3056 3057 0
-5245 -5243 0
-5245 -5244 0
5245 5243 5244 0
-5246 -5242 0
-5246 5245 0
5246 5242 -5245 0
-5249 -5243 0
-5249 -5246 0
5249 5243 5246 0
-5251 -3057 0
-5251 -3058 0
5251 3057 3058 0
-5252 -5250 0
-5252 -5251 0
5252 5250 5251 0
-5253 -5249 0
-5253 5252 0
5253 5249 -5252 0
-5256 -5250 0
-5256 -5253 0
5256 5250 5253 0
-5258 -3058 0
-5258 -3059 0
5258 3058 3059 0
-5259 -5257 0
-5259 -5258 0
5259 5257 5258 0
-5260 -5256 0
-5260 5259 0
5260 5256 -5259 0
-5263 -5257 0
-5263 -5260 0
5263 5257 5260 0
-5265 -3059 0
-5265 -3060 0
5265 3059 3060 0
-5266 -5264 0
-5266 -5265 0
5266 5264 5265 0
-5267 -5263 0
-5267 5266 0
5267 5263 -5266 0
-5270 -5264 0
-5270 -5267 0
5270 5264 5267 0
-5272 -3060 0
-5272 -3061 0
5272 3060 3061 0
-5273 -5271 0
-5273 -5272 0
5273 5271 5272 0
-5274 -5270 0
-5274 5273 0
5274 5270 -5273 0
-5277 -5271 0
-5277 -5274 0
5277 5271 5274 0
-5279 -3061 0
-5279 -3062 0
5279 3061 3062 0
-5280 -5278 0
-5280 -5279 0
5280 5278 5279 0
-5281 -5277 0
-5281 5280 0
5281 5277 -5280 0
-5284 -5278 0
-5284 -5281 0
5284 5278 5281 0
-5286 -3062 0
-5286 -3063 0
5286 3062 3063 0
-5287 -5285 0
-5287 -5286 0
5287 5285 5286 0
-5288 -5284 0
-5288 5287 0
5288 5284 -5287 0
-5291 -5285 0
-5291 -5288 0
5291 5285 5288 0
-5293 -3063 0
-5293 -3064 0
5293 3063 3064 0
-5294 -5292 0
-5294 -5293 0
5294 5292 5293 0
-5295 -5291 0
-5295 5294 0
5295 5291 -5294 0
-5298 -5292 0
-5298 -5295 0
5298 5292 5295 0
-5300 -3064 0
-5300 -3065 0
5300 3064 3065 0
-5301 -5299 0
-5301 -5300 0
5301 5299 5300 0
-5302 -5298 0
-5302 5301 0
5302 5298 -5301 0
-5305 -5299 0
-5305 -5302 0
5305 5299 5302 0
-5307 -3065 0
-5307 -3066 0
5307 3065 3066 0
-5308 -5306 0
-5308 -5307 0
5308 5306 5307 0
-5309 -5305 0
-5309 5308 0
5309 5305 -5308 0
-5312 -5306 0
-5312 -5309 0
5312 5306 5309 0
-5313 3066 0
-5313 3067 0
5313 -3066 -3067 0
-5314 -3066 0
-5314 -3067 0
5314 3066 3067 0
-5315 -5313 0
-5315 -5314 0
5315 5313 5314 0
-5316 -5312 0
-5316 5315 0
5316 5312 -5315 0
-5317 5312 0
-5317 -5315 0
5317 -5312 5315 0
-5318 -5316 0
-5318 -5317 0
5318 5316 5317 0
-5310 5305 0
-5310 -5308 0
5310 -5305 5308 0
-5311 -5309 0
-5311 -5310 0
5311 5309 5310 0
-5303 5298 0
-5303 -5301 0
5303 -5298 5301 0
-5304 -5302 0
-5304 -5303 0
5304 5302 5303 0
-5296 5291 0
-5296 -5294 0
5296 -5291 5294 0
-5297 -5295 0
-5297 -5296 0
5297 5295 5296 0
-5289 5284 0
-5289 -5287 0
5289 -5284 5287 0
-5290 -5288 0
-5290 -5289 0
5290 5288 5289 0
-5282 5277 0
-5282 -5280 0
5282 -5277 5280 0
-5283 -5281 0
-5283 -5282 0
5283 5281 5282 0
-5275 5270 0
-5275 -5273 0
5275 -5270 5273 0
-5276 -5274 0
-5276 -5275 0
5276 5274 5275 0
-5268 5263 0
-5268 -5266 0
5268 -5263 5266 0
-5269 -5267 0
-5269 -5268 0
5269 5267 5268 0
-5261 5256 0
-5261 -5259 0
5261 -5256 5259 0
-5262 -5260 0
-5262 -5261 0
5262 5260 5261 0
-5254 5249 0
-5254 -5252 0
5254 -5249 5252 0
-5255 -5253 0
-5255 -5254 0
5255 5253 5254 0
-5247 5242 0
-5247 -5245 0
5247 -5242 5245 0
-5248 -5246 0
-5248 -5247 0
5248 5246 5247 0
-5240 5235 0
-5240 -5238 0
5240 -5235 5238 0
-5241 -5239 0
-5241 -5240 0
5241 5239 5240 0
-5233 5228 0
-5233 -5231 0
5233 -5228 5231 0
-5234 -5232 0
-5234 -5233 0
5234 5232 5233 0
-5226 5221 0
-5226 -5224 0
5226 -5221 5224 0
-5227 -5225 0
-5227 -5226 0
5227 5225 5226 0
-5219 5214 0
-5219 -5217 0
5219 -5214 5217 0
-5220 -5218 0
-5220 -5219 0
5220 5218 5219 0
-5212 5207 0
-5212 -5210 0
5212 -5207 5210 0
-5213 -5211 0
-5213 -5212 0
5213 5211 5212 0
-5205 5200 0
-5205 -5203 0
5205 -5200 5203 0
-5206 -5204 0
-5206 -5205 0
5206 5204 5205 0
-5198 5193 0
-5198 -5196 0
5198 -5193 5196 0
-5199 -5197 0
-5199 -5198 0
5199 5197 5198 0
-5191 5186 0
-5191 -5189 0
5191 -5186 5189 0
-5192 -5190 0
-5192 -5191 0
5192 5190 5191 0
-5184 5179 0
-5184 -5182 0
5184 -5179 5182 0
-5185 -5183 0
-5185 -5184 0
5185 5183 5184 0
-5177 5172 0
-5177 -5175 0
5177 -5172 5175 0
-5178 -5176 0
-5178 -5177 0
5178 5176 5177 0
-5170 5165 0
-5170 -5168 0
5170 -5165 5168 0
-5171 -5169 0
-5171 -5170 0
5171 5169 5170 0
-5163 5158 0
-5163 -5161 0
5163 -5158 5161 0
-5164 -5162 0
-5164 -5163 0
5164 5162 5163 0
-5156 5151 0
-5156 -5154 0
5156 -5151 5154 0
-5157 -5155 0
-5157 -5156 0
5157 5155 5156 0
-5149 5144 0
-5149 -5147 0
5149 -5144 5147 0
-5150 -5148 0
-5150 -5149 0
5150 5148 5149 0
-5142 5137 0
-5142 -5140 0
5142 -5137 5140 0
-5143 -5141 0
-5143 -5142 0
5143 5141 5142 0
-5135 5130 0
-5135 -5133 0
5135 -5130 5133 0
-5136 -5134 0
-5136 -5135 0
5136 5134 5135 0
-5128 5123 0
-5128 -5126 0
5128 -5123 5126 0
-5129 -5127 0
-5129 -5128 0
5129 5127 5128 0
-5121 5116 0
-5121 -5119 0
5121 -5116 5119 0
-5122 -5120 0
-5122 -5121 0
5122 5120 5121 0
-5114 5109 0
-5114 -5112 0
5114 -5109 5112 0
-5115 -5113 0
-5115 -5114 0
5115 5113 5114 0
-5107 5102 0
-5107 -5105 0
5107 -5102 5105 0
-5108 -5106 0
-5108 -5107 0
5108 5106 5107 0
-5100 5095 0
-5100 -5098 0
5100 -5095 5098 0
-5101 -5099 0
-5101 -5100 0
5101 5099 5100 0
-5093 5088 0
-5093 -5091 0
5093 -5088 5091 0
-5094 -5092 0
-5094 -5093 0
5094 5092 5093 0
-5086 5081 0
-5086 -5084 0
5086 -5081 5084 0
-5087 -5085 0
-5087 -5086 0
5087 5085 5086 0
-5079 5074 0
-5079 -5077 0
5079 -5074 5077 0
-5080 -5078 0
-5080 -5079 0
5080 5078 5079 0
-5072 5067 0
-5072 -5070 0
5072 -5067 5070 0
-5073 -5071 0
-5073 -5072 0
5073 5071 5072 0
-5065 5060 0
-5065 -5063 0
5065 -5060 5063 0
-5066 -5064 0
-5066 -5065 0
5066 5064 5065 0
-5058 5053 0
-5058 -5056 0
5058 -5053 5056 0
-5059 -5057 0
-5059 -5058 0
5059 5057 5058 0
-5051 5046 0
-5051 -5049 0
5051 -5046 5049 0
-5052 -5050 0
-5052 -5051 0
5052 5050 5051 0
-5044 5039 0
-5044 -5042 0
5044 -5039 5042 0
-5045 -5043 0
-5045 -5044 0
5045 5043 5044 0
-5037 5032 0
-5037 -5035 0
5037 -5032 5035 0
-5038 -5036 0
-5038 -5037 0
5038 5036 5037 0
-5030 5025 0
-5030 -5028 0
5030 -5025 5028 0
-5031 -5029 0
-5031 -5030 0
5031 5029 5030 0
-5023 5018 0
-5023 -5021 0
5023 -5018 5021 0
-5024 -5022 0
-5024 -5023 0
5024 5022 5023 0
-5016 5011 0
-5016 -5014 0
5016 -5011 5014 0
-5017 -5015 0
-5017 -5016 0
5017 5015 5016 0
-5009 5004 0
-5009 -5007 0
5009 -5004 5007 0
-5010 -5008 0
-5010 -5009 0
5010 5008 5009 0
-5002 4997 0
-5002 -5000 0
5002 -4997 5000 0
-5003 -5001 0
-5003 -5002 0
5003 5001 5002 0
-4995 4990 0
-4995 -4993 0
4995 -4990 4993 0
-4996 -4994 0
-4996 -4995 0
4996 4994 4995 0
-4988 4983 0
-4988 -4986 0
4988 -4983 4986 0
-4989 -4987 0
-4989 -4988 0
4989 4987 4988 0
-4981 4976 0
-4981 -4979 0
4981 -4976 4979 0
-4982 -4980 0
-4982 -4981 0
4982 4980 4981 0
-4974 4969 0
-4974 -4972 0
4974 -4969 4972 0
-4975 -4973 0
-4975 -4974 0
4975 4973 4974 0
-4967 4962 0
-4967 -4965 0
4967 -4962 4965 0
-4968 -4966 0
-4968 -4967 0
4968 4966 4967 0
-4960 4955 0
-4960 -4958 0
4960 -4955 4958 0
-4961 -4959 0
-4961 -4960 0
4961 4959 4960 0
-4953 4948 0
-4953 -4951 0
4953 -4948 4951 0
-4954 -4952 0
-4954 -4953 0
4954 4952 4953 0
-4946 4941 0
-4946 -4944 0
4946 -4941 4944 0
-4947 -4945 0
-4947 -4946 0
4947 4945 4946 0
-4939 4934 0
-4939 -4937 0
4939 -4934 4937 0
-4940 -4938 0
-4940 -4939 0
4940 4938 4939 0
-4932 4927 0
-4932 -4930 0
4932 -4927 4930 0
-4933 -4931 0
-4933 -4932 0
4933 4931 4932 0
-4925 4920 0
-4925 -4923 0
4925 -4920 4923 0
-4926 -4924 0
-4926 -4925 0
4926 4924 4925 0
-4918 4913 0
-4918 -4916 0
4918 -4913 4916 0
-4919 -4917 0
-4919 -4918 0
4919 4917 4918 0
-4911 4906 0
-4911 -4909 0
4911 -4906 4909 0
-4912 -4910 0
-4912 -4911 0
4912 4910 4911 0
-4904 4899 0
-4904 -4902 0
4904 -4899 4902 0
-4905 -4903 0
-4905 -4904 0
4905 4903 4904 0
-4897 4892 0
-4897 -4895 0
4897 -4892 4895 0
-4898 -4896 0
-4898 -4897 0
4898 4896 4897 0
-4890 -4883 0
-4890 -4888 0
4890 4883 4888 0
-4891 -4889 0
-4891 -4890 0
4891 4889 4890 0
-4884 -3004 0
-4884 -3005 0
4884 3004 3005 0
-4885 -4883 0
-4885 -4884 0
4885 4883 4884 0
-5320 3004 0
-5320 4885 0
5320 -3004 -4885 0
-5323 4891 0
-5323 5320 0
5323 -4891 -5320 0
-5326 4898 0
-5326 5323 0
5326 -4898 -5323 0
-5329 4905 0
-5329 5326 0
5329 -4905 -5326 0
-5332 4912 0
-5332 5329 0
5332 -4912 -5329 0
-5335 4919 0
-5335 5332 0
5335 -4919 -5332 0
-5338 4926 0
-5338 5335 0
5338 -4926 -5335 0
-5341 4933 0
-5341 5338 0
5341 -4933 -5338 0
-5344 4940 0
-5344 5341 0
5344 -4940 -5341 0
-5347 4947 0
-5347 5344 0
5347 -4947 -5344 0
-5350 4954 0
-5350 5347 0
5350 -4954 -5347 0
-5353 4961 0
-5353 5350 0
5353 -4961 -5350 0
-5356 4968 0
-5356 5353 0
5356 -4968 -5353 0
-5359 4975 0
-5359 5356 0
5359 -4975 -5356 0
-5362 4982 0
-5362 5359 0
5362 -4982 -5359 0
-5365 4989 0
-5365 5362 0
5365 -4989 -5362 0
-5368 4996 0
-5368 5365 0
5368 -4996 -5365 0
-5371 5003 0
-5371 5368 0
5371 -5003 -5368 0
-5374 5010 0
-5374 5371 0
5374 -5010 -5371 0
-5377 5017 0
-5377 5374 0
5377 -5017 -5374 0
-5380 5024 0
-5380 5377 0
5380 -5024 -5377 0
-5383 5031 0
-5383 5380 0
5383 -5031 -5380 0
-5386 5038 0
-5386 5383 0
5386 -5038 -5383 0
-5389 5045 0
-5389 5386 0
5389 -5045 -5386 0
-5392 5052 0
-5392 5389 0
5392 -5052 -5389 0
-5395 5059 0
-5395 5392 0
5395 -5059 -5392 0
-5398 5066 0
-5398 5395 0
5398 -5066 -5395 0
-5401 5073 0
-5401 5398 0
5401 -5073 -5398 0
-5404 5080 0
-5404 5401 0
5404 -5080 -5401 0
-5407 5087 0
-5407 5404 0
5407 -5087 -5404 0
-5410 5094 0
-5410 5407 0
5410 -5094 -5407 0
-5413 5101 0
-5413 5410 0
5413 -5101 -5410 0
-5416 5108 0
-5416 5413 0
5416 -5108 -5413 0
-5419 5115 0
-5419 5416 0
5419 -5115 -5416 0
-5422 5122 0
-5422 5419 0
5422 -5122 -5419 0
-5425 5129 0
-5425 5422 0
5425 -5129 -5422 0
-5428 5136 0
-5428 5425 0
5428 -5136 -5425 0
-5431 5143 0
-5431 5428 0
5431 -5143 -5428 0
-5434 5150 0
-5434 5431 0
5434 -5150 -5431 0
-5437 5157 0
-5437 5434 0
5437 -5157 -5434 0
-5440 5164 0
-5440 5437 0
5440 -5164 -5437 0
-5443 5171 0
-5443 5440 0
5443 -5171 -5440 0
-5446 5178 0
-5446 5443 0
5446 -5178 -5443 0
-5449 5185 0
-5449 5446 0
5449 -5185 -5446 0
-5452 5192 0
-5452 5449 0
5452 -5192 -5449 0
-5455 5199 0
-5455 5452 0
5455 -5199 -5452 0
-5458 5206 0
-5458 5455 0
5458 -5206 -5455 0
-5461 5213 0
-5461 5458 0
5461 -5213 -5458 0
-5464 5220 0
-5464 5461 0
5464 -5220 -5461 0
-5467 5227 0
-5467 5464 0
5467 -5227 -5464 0
-5470 5234 0
-5470 5467 0
5470 -5234 -5467 0
-5473 5241 0
-5473 5470 0
5473 -5241 -5470 0
-5476 5248 0
-5476 5473 0
5476 -5248 -5473 0
-5479 5255 0
-5479 5476 0
5479 -5255 -5476 0
-5482 5262 0
-5482 5479 0
5482 -5262 -5479 0
-5485 5269 0
-5485 5482 0
5485 -5269 -5482 0
-5488 5276 0
-5488 5485 0
5488 -5276 -5485 0
-5491 5283 0
-5491 5488 0
5491 -5283 -5488 0
-5494 5290 0
-5494 5491 0
5494 -5290 -5491 0
-5497 5297 0
-5497 5494 0
5497 -5297 -5494 0
-5500 5304 0
-5500 5497 0
5500 -5304 -5497 0
-5503 5311 0
-5503 5500 0
5503 -5311 -5500 0
-5506 5318 0
-5506 5503 0
5506 -5318 -5503 0
-5507 -5318 0
-5507 -5503 0
5507 5318 5503 0
-5508 -5506 0
-5508 -5507 0
5508 5506 5507 0
-5695 4881 0
-5695 -5508 0
5695 -4881 5508 0
-5696 -4881 0
-5696 5508 0
5696 4881 -5508 0
-5697 -5695 0
-5697 -5696 0
5697 5695 5696 0
4880 -16774 0
-4880 16774 0
-5504 -5311 0
-5504 -5500 0
5504 5311 5500 0
-5505 -5503 0
-5505 -5504 0
5505 5503 5504 0
-5692 4880 0
-5692 -5505 0
5692 -4880 5505 0
-5693 -4880 0
-5693 5505 0
5693 4880 -5505 0
-5694 -5692 0
-5694 -5693 0
5694 5692 5693 0
4879 -16773 0
-4879 16773 0
-5501 -5304 0
-5501 -5497 0
5501 5304 5497 0
-5502 -5500 0
-5502 -5501 0
5502 5500 5501 0
-5689 4879 0
-5689 -5502 0
5689 -4879 5502 0
-5690 -4879 0
-5690 5502 0
5690 4879 -5502 0
-5691 -5689 0
-5691 -5690 0
5691 5689 5690 0
4878 -16772 0
-4878 16772 0
-5498 -5297 0
-5498 -5494 0
5498 5297 5494 0
-5499 -5497 0
-5499 -5498 0
5499 5497 5498 0
-5686 4878 0
-5686 -5499 0
5686 -4878 5499 0
-5687 -4878 0
-5687 5499 0
5687 4878 -5499 0
-5688 -5686 0
-5688 -5687 0
5688 5686 5687 0
4877 -16771 0
-4877 16771 0
-5495 -5290 0
-5495 -5491 0
5495 5290 5491 0
-5496 -5494 0
-5496 -5495 0
5496 5494 5495 0
-5683 4877 0
-5683 -5496 0
5683 -4877 5496 0
-5684 -4877 0
-5684 5496 0
5684 4877 -5496 0
-5685 -5683 0
-5685 -5684 0
5685 5683 5684 0
4876 -16770 0
-4876 16770 0
-5492 -5283 0
-5492 -5488 0
5492 5283 5488 0
-5493 -5491 0
-5493 -5492 0
5493 5491 5492 0
-5680 4876 0
-5680 -5493 0
5680 -4876 5493 0
-5681 -4876 0
-5681 5493 0
5681 4876 -5493 0
-5682 -5680 0
-5682 -5681 0
5682 5680 5681 0
4875 -16769 0
-4875 16769 0
-5489 -5276 0
-5489 -5485 0
5489 5276 5485 0
-5490 -5488 0
-5490 -5489 0
5490 5488 5489 0
-5677 4875 0
-5677 -5490 0
5677 -4875 5490 0
-5678 -4875 0
-5678 5490 0
5678 4875 -5490 0
-5679 -5677 0
-5679 -5678 0
5679 5677 5678 0
4874 -16768 0
-4874 16768 0
-5486 -5269 0
-5486 -5482 0
5486 5269 5482 0
-5487 -5485 0
-5487 -5486 0
5487 5485 5486 0
-5674 4874 0
-5674 -5487 0
5674 -4874 5487 0
-5675 -4874 0
-5675 5487 0
5675 4874 -5487 0
-5676 -5674 0
-5676 -5675 0
5676 5674 5675 0
4873 -16767 0
-4873 16767 0
-5483 -5262 0
-5483 -5479 0
5483 5262 5479 0
-5484 -5482 0
-5484 -5483 0
5484 5482 5483 0
-5671 4873 0
-5671 -5484 0
5671 -4873 5484 0
-5672 -4873 0
-5672 5484 0
5672 4873 -5484 0
-5673 -5671 0
-5673 -5672 0
5673 5671 5672 0
4872 -16766 0
-4872 16766 0
-5480 -5255 0
-5480 -5476 0
5480 5255 5476 0
-5481 -5479 0
-5481 -5480 0
5481 5479 5480 0
-5668 4872 0
-5668 -5481 0
5668 -4872 5481 0
-5669 -4872 0
-5669 5481 0
5669 4872 -5481 0
-5670 -5668 0
-5670 -5669 0
5670 5668 5669 0
4871 -16765 0
-4871 16765 0
-5477 -5248 0
-5477 -5473 0
5477 5248 5473 0
-5478 -5476 0
-5478 -5477 0
5478 5476 5477 0
-5665 4871 0
-5665 -5478 0
5665 -4871 5478 0
-5666 -4871 0
-5666 5478 0
5666 4871 -5478 0
-5667 -5665 0
-5667 -5666 0
5667 5665 5666 0
4870 -16764 0
-4870 16764 0
-5474 -5241 0
-5474 -5470 0
5474 5241 5470 0
-5475 -5473 0
-5475 -5474 0
5475 5473 5474 0
-5662 4870 0
-5662 -5475 0
5662 -4870 5475 0
-5663 -4870 0
-5663 5475 0
5663 4870 -5475 0
-5664 -5662 0
-5664 -5663 0
5664 5662 5663 0
4869 -16763 0
-4869 16763 0
-5471 -5234 0
-5471 -5467 0
5471 5234 5467 0
-5472 -5470 0
-5472 -5471 0
5472 5470 5471 0
-5659 4869 0
-5659 -5472 0
5659 -4869 5472 0
-5660 -4869 0
-5660 5472 0
5660 4869 -5472 0
-5661 -5659 0
-5661 -5660 0
5661 5659 5660 0
4868 -16762 0
-4868 16762 0
-5468 -5227 0
-5468 -5464 0
5468 5227 5464 0
-5469 -5467 0
-5469 -5468 0
5469 5467 5468 0
-5656 4868 0
-5656 -5469 0
5656 -4868 5469 0
-5657 -4868 0
-5657 5469 0
5657 4868 -5469 0
-5658 -5656 0
-5658 -5657 0
5658 5656 5657 0
4867 -16761 0
-4867 16761 0
-5465 -5220 0
-5465 -5461 0
5465 5220 5461 0
-5466 -5464 0
-5466 -5465 0
5466 5464 5465 0
-5653 4867 0
-5653 -5466 0
5653 -4867 5466 0
-5654 -4867 0
-5654 5466 0
5654 4867 -5466 0
-5655 -5653 0
-5655 -5654 0
5655 5653 5654 0
4866 -16760 0
-4866 16760 0
-5462 -5213 0
-5462 -5458 0
5462 5213 5458 0
-5463 -5461 0
-5463 -5462 0
5463 5461 5462 0
-5650 4866 0
-5650 -5463 0
5650 -4866 5463 0
-5651 -4866 0
-5651 5463 0
5651 4866 -5463 0
-5652 -5650 0
-5652 -5651 0
5652 5650 5651 0
4865 -16759 0
-4865 16759 0
-5459 -5206 0
-5459 -5455 0
5459 5206 5455 0
-5460 -5458 0
-5460 -5459 0
5460 5458 5459 0
-5647 4865 0
-5647 -5460 0
5647 -4865 5460 0
-5648 -4865 0
-5648 5460 0
5648 4865 -5460 0
-5649 -5647 0
-5649 -5648 0
5649 5647 5648 0
4864 -16758 0
-4864 16758 0
-5456 -5199 0
-5456 -5452 0
5456 5199 5452 0
-5457 -5455 0
-5457 -5456 0
5457 5455 5456 0
-5644 4864 0
-5644 -5457 0
5644 -4864 5457 0
-5645 -4864 0
-5645 5457 0
5645 4864 -5457 0
-5646 -5644 0
-5646 -5645 0
5646 5644 5645 0
4863 -16757 0
-4863 16757 0
-5453 -5192 0
-5453 -5449 0
5453 5192 5449 0
-5454 -5452 0
-5454 -5453 0
5454 5452 5453 0
-5641 4863 0
-5641 -5454 0
5641 -4863 5454 0
-5642 -4863 0
-5642 5454 0
5642 4863 -5454 0
-5643 -5641 0
-5643 -5642 0
5643 5641 5642 0
4862 -16756 0
-4862 16756 0
-5450 -5185 0
-5450 -5446 0
5450 5185 5446 0
-5451 -5449 0
-5451 -5450 0
5451 5449 5450 0
-5638 4862 0
-5638 -5451 0
5638 -4862 5451 0
-5639 -4862 0
-5639 5451 0
5639 4862 -5451 0
-5640 -5638 0
-5640 -5639 0
5640 5638 5639 0
4861 -16755 0
-4861 16755 0
-5447 -5178 0
-5447 -5443 0
5447 5178 5443 0
-5448 -5446 0
-5448 -5447 0
5448 5446 5447 0
-5635 4861 0
-5635 -5448 0
5635 -4861 5448 0
-5636 -4861 0
-5636 5448 0
5636 4861 -5448 0
-5637 -5635 0
-5637 -5636 0
5637 5635 5636 0
4860 -16754 0
-4860 16754 0
-5444 -5171 0
-5444 -5440 0
5444 5171 5440 0
-5445 -5443 0
-5445 -5444 0
5445 5443 5444 0
-5632 4860 0
-5632 -5445 0
5632 -4860 5445 0
-5633 -4860 0
-5633 5445 0
5633 4860 -5445 0
-5634 -5632 0
-5634 -5633 0
5634 5632 5633 0
4859 -16753 0
-4859 16753 0
-5441 -5164 0
-5441 -5437 0
5441 5164 5437 0
-5442 -5440 0
-5442 -5441 0
5442 5440 5441 0
-5629 4859 0
-5629 -5442 0
5629 -4859 5442 0
-5630 -4859 0
-5630 5442 0
5630 4859 -5442 0
-5631 -5629 0
-5631 -5630 0
5631 5629 5630 0
4858 -16752 0
-4858 16752 0
-5438 -5157 0
-5438 -5434 0
5438 5157 5434 0
-5439 -5437 0
-5439 -5438 0
5439 5437 5438 0
-5626 4858 0
-5626 -5439 0
5626 -4858 5439 0
-5627 -4858 0
-5627 5439 0
5627 4858 -5439 0
-5628 -5626 0
-5628 -5627 0
5628 5626 5627 0
4857 -16751 0
-4857 16751 0
-5435 -5150 0
-5435 -5431 0
5435 5150 5431 0
-5436 -5434 0
-5436 -5435 0
5436 5434 5435 0
-5623 4857 0
-5623 -5436 0
5623 -4857 5436 0
-5624 -4857 0
-5624 5436 0
5624 4857 -5436 0
-5625 -5623 0
-5625 -5624 0
5625 5623 5624 0
4856 -16750 0
-4856 16750 0
-5432 -5143 0
-5432 -5428 0
5432 5143 5428 0
-5433 -5431 0
-5433 -5432 0
5433 5431 5432 0
-5620 4856 0
-5620 -5433 0
5620 -4856 5433 0
-5621 -4856 0
-5621 5433 0
5621 4856 -5433 0
-5622 -5620 0
-5622 -5621 0
5622 5620 5621 0
4855 -16749 0
-4855 16749 0
-5429 -5136 0
-5429 -5425 0
5429 5136 5425 0
-5430 -5428 0
-5430 -5429 0
5430 5428 5429 0
-5617 4855 0
-5617 -5430 0
5617 -4855 5430 0
-5618 -4855 0
-5618 5430 0
5618 4855 -5430 0
-5619 -5617 0
-5619 -5618 0
5619 5617 5618 0
4854 -16748 0
-4854 16748 0
-5426 -5129 0
-5426 -5422 0
5426 5129 5422 0
-5427 -5425 0
-5427 -5426 0
5427 5425 5426 0
-5614 4854 0
-5614 -5427 0
5614 -4854 5427 0
-5615 -4854 0
-5615 5427 0
5615 4854 -5427 0
-5616 -5614 0
-5616 -5615 0
5616 5614 5615 0
4853 -16747 0
-4853 16747 0
-5423 -5122 0
-5423 -5419 0
5423 5122 5419 0
-5424 -5422 0
-5424 -5423 0
5424 5422 5423 0
-5611 4853 0
-5611 -5424 0
5611 -4853 5424 0
-5612 -4853 0
-5612 5424 0
5612 4853 -5424 0
-5613 -5611 0
-5613 -5612 0
5613 5611 5612 0
4852 -16746 0
-4852 16746 0
-5420 -5115 0
-5420 -5416 0
5420 5115 5416 0
-5421 -5419 0
-5421 -5420 0
5421 5419 5420 0
-5608 4852 0
-5608 -5421 0
5608 -4852 5421 0
-5609 -4852 0
-5609 5421 0
5609 4852 -5421 0
-5610 -5608 0
-5610 -5609 0
5610 5608 5609 0
4851 -16745 0
-4851 16745 0
-5417 -5108 0
-5417 -5413 0
5417 5108 5413 0
-5418 -5416 0
-5418 -5417 0
5418 5416 5417 0
-5605 4851 0
-5605 -5418 0
5605 -4851 5418 0
-5606 -4851 0
-5606 5418 0
5606 4851 -5418 0
-5607 -5605 0
-5607 -5606 0
5607 5605 5606 0
4850 -16744 0
-4850 16744 0
-5414 -5101 0
-5414 -5410 0
5414 5101 5410 0
-5415 -5413 0
-5415 -5414 0
5415 5413 5414 0
-5602 4850 0
-5602 -5415 0
5602 -4850 5415 0
-5603 -4850 0
-5603 5415 0
5603 4850 -5415 0
-5604 -5602 0
-5604 -5603 0
5604 5602 5603 0
4849 -16743 0
-4849 16743 0
-5411 -5094 0
-5411 -5407 0
5411 5094 5407 0
-5412 -5410 0
-5412 -5411 0
5412 5410 5411 0
-5599 4849 0
-5599 -5412 0
5599 -4849 5412 0
-5600 -4849 0
-5600 5412 0
5600 4849 -5412 0
-5601 -5599 0
-5601 -5600 0
5601 5599 5600 0
4848 -16742 0
-4848 16742 0
-5408 -5087 0
-5408 -5404 0
5408 5087 5404 0
-5409 -5407 0
-5409 -5408 0
5409 5407 5408 0
-5596 4848 0
-5596 -5409 0
5596 -4848 5409 0
-5597 -4848 0
-5597 5409 0
5597 4848 -5409 0
-5598 -5596 0
-5598 -5597 0
5598 5596 5597 0
4847 -16741 0
-4847 16741 0
-5405 -5080 0
-5405 -5401 0
5405 5080 5401 0
-5406 -5404 0
-5406 -5405 0
5406 5404 5405 0
-5593 4847 0
-5593 -5406 0
5593 -4847 5406 0
-5594 -4847 0
-5594 5406 0
5594 4847 -5406 0
-5595 -5593 0
-5595 -5594 0
5595 5593 5594 0
4846 -16740 0
-4846 16740 0
-5402 -5073 0
-5402 -5398 0
5402 5073 5398 0
-5403 -5401 0
-5403 -5402 0
5403 5401 5402 0
-5590 4846 0
-5590 -5403 0
5590 -4846 5403 0
-5591 -4846 0
-5591 5403 0
5591 4846 -5403 0
-5592 -5590 0
-5592 -5591 0
5592 5590 5591 0
4845 -16739 0
-4845 16739 0
-5399 -5066 0
-5399 -5395 0
5399 5066 5395 0
-5400 -5398 0
-5400 -5399 0
5400 5398 5399 0
-5587 4845 0
-5587 -5400 0
5587 -4845 5400 0
-5588 -4845 0
-5588 5400 0
5588 4845 -5400 0
-5589 -5587 0
-5589 -5588 0
5589 5587 5588 0
4844 -16738 0
-4844 16738 0
-5396 -5059 0
-5396 -5392 0
5396 5059 5392 0
-5397 -5395 0
-5397 -5396 0
5397 5395 5396 0
-5584 4844 0
-5584 -5397 0
5584 -4844 5397 0
-5585 -4844 0
-5585 5397 0
5585 4844 -5397 0
-5586 -5584 0
-5586 -5585 0
5586 5584 5585 0
4843 -16737 0
-4843 16737 0
-5393 -5052 0
-5393 -5389 0
5393 5052 5389 0
-5394 -5392 0
-5394 -5393 0
5394 5392 5393 0
-5581 4843 0
-5581 -5394 0
5581 -4843 5394 0
-5582 -4843 0
-5582 5394 0
5582 4843 -5394 0
-5583 -5581 0
-5583 -5582 0
5583 5581 5582 0
4842 -16736 0
-4842 16736 0
-5390 -5045 0
-5390 -5386 0
5390 5045 5386 0
-5391 -5389 0
-5391 -5390 0
5391 5389 5390 0
-5578 4842 0
-5578 -5391 0
5578 -4842 5391 0
-5579 -4842 0
-5579 5391 0
5579 4842 -5391 0
-5580 -5578 0
-5580 -5579 0
5580 5578 5579 0
4841 -16735 0
-4841 16735 0
-5387 -5038 0
-5387 -5383 0
5387 5038 5383 0
-5388 -5386 0
-5388 -5387 0
5388 5386 5387 0
-5575 4841 0
-5575 -5388 0
5575 -4841 5388 0
-5576 -4841 0
-5576 5388 0
5576 4841 -5388 0
-5577 -5575 0
-5577 -5576 0
5577 5575 5576 0
4840 -16734 0
-4840 16734 0
-5384 -5031 0
-5384 -5380 0
5384 5031 5380 0
-5385 -5383 0
-5385 -5384 0
5385 5383 5384 0
-5572 4840 0
-5572 -5385 0
5572 -4840 5385 0
-5573 -4840 0
-5573 5385 0
5573 4840 -5385 0
-5574 -5572 0
-5574 -5573 0
5574 5572 5573 0
4839 -16733 0
-4839 16733 0
-5381 -5024 0
-5381 -5377 0
5381 5024 5377 0
-5382 -5380 0
-5382 -5381 0
5382 5380 5381 0
-5569 4839 0
-5569 -5382 0
5569 -4839 5382 0
-5570 -4839 0
-5570 5382 0
5570 4839 -5382 0
-5571 -5569 0
-5571 -5570 0
5571 5569 5570 0
4838 -16732 0
-4838 16732 0
-5378 -5017 0
-5378 -5374 0
5378 5017 5374 0
-5379 -5377 0
-5379 -5378 0
5379 5377 5378 0
-5566 4838 0
-5566 -5379 0
5566 -4838 5379 0
-5567 -4838 0
-5567 5379 0
5567 4838 -5379 0
-5568 -5566 0
-5568 -5567 0
5568 5566 5567 0
4837 -16731 0
-4837 16731 0
-5375 -5010 0
-5375 -5371 0
5375 5010 5371 0
-5376 -5374 0
-5376 -5375 0
5376 5374 5375 0
-5563 4837 0
-5563 -5376 0
5563 -4837 5376 0
-5564 -4837 0
-5564 5376 0
5564 4837 -5376 0
-5565 -5563 0
-5565 -5564 0
5565 5563 5564 0
4836 -16730 0
-4836 16730 0
-5372 -5003 0
-5372 -5368 0
5372 5003 5368 0
-5373 -5371 0
-5373 -5372 0
5373 5371 5372 0
-5560 4836 0
-5560 -5373 0
5560 -4836 5373 0
-5561 -4836 0
-5561 5373 0
5561 4836 -5373 0
-5562 -5560 0
-5562 -5561 0
5562 5560 5561 0
4835 -16729 0
-4835 16729 0
-5369 -4996 0
-5369 -5365 0
5369 4996 5365 0
-5370 -5368 0
-5370 -5369 0
5370 5368 5369 0
-5557 4835 0
-5557 -5370 0
5557 -4835 5370 0
-5558 -4835 0
-5558 5370 0
5558 4835 -5370 0
-5559 -5557 0
-5559 -5558 0
5559 5557 5558 0
4834 -16728 0
-4834 16728 0
-5366 -4989 0
-5366 -5362 0
5366 4989 5362 0
-5367 -5365 0
-5367 -5366 0
5367 5365 5366 0
-5554 4834 0
-5554 -5367 0
5554 -4834 5367 0
-5555 -4834 0
-5555 5367 0
5555 4834 -5367 0
-5556 -5554 0
-5556 -5555 0
5556 5554 5555 0
4833 -16727 0
-4833 16727 0
-5363 -4982 0
-5363 -5359 0
5363 4982 5359 0
-5364 -5362 0
-5364 -5363 0
5364 5362 5363 0
-5551 4833 0
-5551 -5364 0
5551 -4833 5364 0
-5552 -4833 0
-5552 5364 0
5552 4833 -5364 0
-5553 -5551 0
-5553 -5552 0
5553 5551 5552 0
4832 -16726 0
-4832 16726 0
-5360 -4975 0
-5360 -5356 0
5360 4975 5356 0
-5361 -5359 0
-5361 -5360 0
5361 5359 5360 0
-5548 4832 0
-5548 -5361 0
5548 -4832 5361 0
-5549 -4832 0
-5549 5361 0
5549 4832 -5361 0
-5550 -5548 0
-5550 -5549 0
5550 5548 5549 0
4831 -16725 0
-4831 16725 0
-5357 -4968 0
-5357 -5353 0
5357 4968 5353 0
-5358 -5356 0
-5358 -5357 0
5358 5356 5357 0
-5545 4831 0
-5545 -5358 0
5545 -4831 5358 0
-5546 -4831 0
-5546 5358 0
5546 4831 -5358 0
-5547 -5545 0
-5547 -5546 0
5547 5545 5546 0
4830 -16724 0
-4830 16724 0
-5354 -4961 0
-5354 -5350 0
5354 4961 5350 0
-5355 -5353 0
-5355 -5354 0
5355 5353 5354 0
-5542 4830 0
-5542 -5355 0
5542 -4830 5355 0
-5543 -4830 0
-5543 5355 0
5543 4830 -5355 0
-5544 -5542 0
-5544 -5543 0
5544 5542 5543 0
4829 -16723 0
-4829 16723 0
-5351 -4954 0
-5351 -5347 0
5351 4954 5347 0
-5352 -5350 0
-5352 -5351 0
5352 5350 5351 0
-5539 4829 0
-5539 -5352 0
5539 -4829 5352 0
-5540 -4829 0
-5540 5352 0
5540 4829 -5352 0
-5541 -5539 0
-5541 -5540 0
5541 5539 5540 0
4828 -16722 0
-4828 16722 0
-5348 -4947 0
-5348 -5344 0
5348 4947 5344 0
-5349 -5347 0
-5349 -5348 0
5349 5347 5348 0
-5536 4828 0
-5536 -5349 0
5536 -4828 5349 0
-5537 -4828 0
-5537 5349 0
5537 4828 -5349 0
-5538 -5536 0
-5538 -5537 0
5538 5536 5537 0
4827 -16721 0
-4827 16721 0
-5345 -4940 0
-5345 -5341 0
5345 4940 5341 0
-5346 -5344 0
-5346 -5345 0
5346 5344 5345 0
-5533 4827 0
-5533 -5346 0
5533 -4827 5346 0
-5534 -4827 0
-5534 5346 0
5534 4827 -5346 0
-5535 -5533 0
-5535 -5534 0
5535 5533 5534 0
4826 -16720 0
-4826 16720 0
-5342 -4933 0
-5342 -5338 0
5342 4933 5338 0
-5343 -5341 0
-5343 -5342 0
5343 5341 5342 0
-5530 4826 0
-5530 -5343 0
5530 -4826 5343 0
-5531 -4826 0
-5531 5343 0
5531 4826 -5343 0
-5532 -5530 0
-5532 -5531 0
5532 5530 5531 0
4825 -16719 0
-4825 16719 0
-5339 -4926 0
-5339 -5335 0
5339 4926 5335 0
-5340 -5338 0
-5340 -5339 0
5340 5338 5339 0
-5527 4825 0
-5527 -5340 0
5527 -4825 5340 0
-5528 -4825 0
-5528 5340 0
5528 4825 -5340 0
-5529 -5527 0
-5529 -5528 0
5529 5527 5528 0
4824 -16718 0
-4824 16718 0
-5336 -4919 0
-5336 -5332 0
5336 4919 5332 0
-5337 -5335 0
-5337 -5336 0
5337 5335 5336 0
-5524 4824 0
-5524 -5337 0
5524 -4824 5337 0
-5525 -4824 0
-5525 5337 0
5525 4824 -5337 0
-5526 -5524 0
-5526 -5525 0
5526 5524 5525 0
4823 -16717 0
-4823 16717 0
-5333 -4912 0
-5333 -5329 0
5333 4912 5329 0
-5334 -5332 0
-5334 -5333 0
5334 5332 5333 0
-5521 4823 0
-5521 -5334 0
5521 -4823 5334 0
-5522 -4823 0
-5522 5334 0
5522 4823 -5334 0
-5523 -5521 0
-5523 -5522 0
5523 5521 5522 0
4822 -16716 0
-4822 16716 0
-5330 -4905 0
-5330 -5326 0
5330 4905 5326 0
-5331 -5329 0
-5331 -5330 0
5331 5329 5330 0
-5518 4822 0
-5518 -5331 0
5518 -4822 5331 0
-5519 -4822 0
-5519 5331 0
5519 4822 -5331 0
-5520 -5518 0
-5520 -5519 0
5520 5518 5519 0
4821 -16715 0
-4821 16715 0
-5327 -4898 0
-5327 -5323 0
5327 4898 5323 0
-5328 -5326 0
-5328 -5327 0
5328 5326 5327 0
-5515 4821 0
-5515 -5328 0
5515 -4821 5328 0
-5516 -4821 0
-5516 5328 0
5516 4821 -5328 0
-5517 -5515 0
-5517 -5516 0
5517 5515 5516 0
4819 -16713 0
-4819 16713 0
-5321 -3004 0
-5321 -4885 0
5321 3004 4885 0
-5322 -5320 0
-5322 -5321 0
5322 5320 5321 0
-5509 4819 0
-5509 -5322 0
5509 -4819 5322 0
-5510 -4819 0
-5510 5322 0
5510 4819 -5322 0
-5511 -5509 0
-5511 -5510 0
5511 5509 5510 0
4820 -16714 0
-4820 16714 0
-5324 -4891 0
-5324 -5320 0
5324 4891 5320 0
-5325 -5323 0
-5325 -5324 0
5325 5323 5324 0
-5512 4820 0
-5512 -5325 0
5512 -4820 5325 0
-5513 -4820 0
-5513 5325 0
5513 4820 -5325 0
-5514 -5512 0
-5514 -5513 0
5514 5512 5513 0
-5698 5511 0
-5698 5514 0
5698 -5511 -5514 0
-5699 5517 0
-5699 5698 0
5699 -5517 -5698 0
-5700 5520 0
-5700 5699 0
5700 -5520 -5699 0
-5701 5523 0
-5701 5700 0
5701 -5523 -5700 0
-5702 5526 0
-5702 5701 0
5702 -5526 -5701 0
-5703 5529 0
-5703 5702 0
5703 -5529 -5702 0
-5704 5532 0
-5704 5703 0
5704 -5532 -5703 0
-5705 5535 0
-5705 5704 0
5705 -5535 -5704 0
-5706 5538 0
-5706 5705 0
5706 -5538 -5705 0
-5707 5541 0
-5707 5706 0
5707 -5541 -5706 0
-5708 5544 0
-5708 5707 0
5708 -5544 -5707 0
-5709 5547 0
-5709 5708 0
5709 -5547 -5708 0
-5710 5550 0
-5710 5709 0
5710 -5550 -5709 0
-5711 5553 0
-5711 5710 0
5711 -5553 -5710 0
-5712 5556 0
-5712 5711 0
5712 -5556 -5711 0
-5713 5559 0
-5713 5712 0
5713 -5559 -5712 0
-5714 5562 0
-5714 5713 0
5714 -5562 -5713 0
-5715 5565 0
-5715 5714 0
5715 -5565 -5714 0
-5716 5568 0
-5716 5715 0
5716 -5568 -5715 0
-5717 5571 0
-5717 5716 0
5717 -5571 -5716 0
-5718 5574 0
-5718 5717 0
5718 -5574 -5717 0
-5719 5577 0
-5719 5718 0
5719 -5577 -5718 0
-5720 5580 0
-5720 5719 0
5720 -5580 -5719 0
-5721 5583 0
-5721 5720 0
5721 -5583 -5720 0
-5722 5586 0
-5722 5721 0
5722 -5586 -5721 0
-5723 5589 0
-5723 5722 0
5723 -5589 -5722 0
-5724 5592 0
-5724 5723 0
5724 -5592 -5723 0
-5725 5595 0
-5725 5724 0
5725 -5595 -5724 0
-5726 5598 0
-5726 5725 0
5726 -5598 -5725 0
-5727 5601 0
-5727 5726 0
5727 -5601 -5726 0
-5728 5604 0
-5728 5727 0
5728 -5604 -5727 0
-5729 5607 0
-5729 5728 0
5729 -5607 -5728 0
-5730 5610 0
-5730 5729 0
5730 -5610 -5729 0
-5731 5613 0
-5731 5730 0
5731 -5613 -5730 0
-5732 5616 0
-5732 5731 0
5732 -5616 -5731 0
-5733 5619 0
-5733 5732 0
5733 -5619 -5732 0
-5734 5622 0
-5734 5733 0
5734 -5622 -5733 0
-5735 5625 0
-5735 5734 0
5735 -5625 -5734 0
-5736 5628 0
-5736 5735 0
5736 -5628 -5735 0
-5737 5631 0
-5737 5736 0
5737 -5631 -5736 0
-5738 5634 0
-5738 5737 0
5738 -5634 -5737 0
-5739 5637 0
-5739 5738 0
5739 -5637 -5738 0
-5740 5640 0
-5740 5739 0
5740 -5640 -5739 0
-5741 5643 0
-5741 5740 0
5741 -5643 -5740 0
-5742 5646 0
-5742 5741 0
5742 -5646 -5741 0
-5743 5649 0
-5743 5742 0
5743 -5649 -5742 0
-5744 5652 0
-5744 5743 0
5744 -5652 -5743 0
-5745 5655 0
-5745 5744 0
5745 -5655 -5744 0
-5746 5658 0
-5746 5745 0
5746 -5658 -5745 0
-5747 5661 0
-5747 5746 0
5747 -5661 -5746 0
-5748 5664 0
-5748 5747 0
5748 -5664 -5747 0
-5749 5667 0
-5749 5748 0
5749 -5667 -5748 0
-5750 5670 0
-5750 5749 0
5750 -5670 -5749 0
-5751 5673 0
-5751 5750 0
5751 -5673 -5750 0
-5752 5676 0
-5752 5751 0
5752 -5676 -5751 0
-5753 5679 0
-5753 5752 0
5753 -5679 -5752 0
-5754 5682 0
-5754 5753 0
5754 -5682 -5753 0
-5755 5685 0
-5755 5754 0
5755 -5685 -5754 0
-5756 5688 0
-5756 5755 0
5756 -5688 -5755 0
-5757 5691 0
-5757 5756 0
5757 -5691 -5756 0
-5758 5694 0
-5758 5757 0
5758 -5694 -5757 0
-5759 5697 0
-5759 5758 0
5759 -5697 -5758 0
-5760 -4882 0
-5760 5759 0
5760 4882 -5759 0
-5761 4213 0
-5761 -5760 0
5761 -4213 5760 0
-5762 4818 0
-5762 -5761 0
5762 -4818 5761 0
-5949 -4318 0
-5949 4881 0
5949 4318 -4881 0
-5950 4318 0
-5950 -4881 0
5950 -4318 4881 0
-5951 -5949 0
-5951 -5950 0
5951 5949 5950 0
-5946 -4317 0
-5946 4880 0
5946 4317 -4880 0
-5947 4317 0
-5947 -4880 0
5947 -4317 4880 0
-5948 -5946 0
-5948 -5947 0
5948 5946 5947 0
-5943 -4316 0
-5943 4879 0
5943 4316 -4879 0
-5944 4316 0
-5944 -4879 0
5944 -4316 4879 0
-5945 -5943 0
-5945 -5944 0
5945 5943 5944 0
-5940 -4315 0
-5940 4878 0
5940 4315 -4878 0
-5941 4315 0
-5941 -4878 0
5941 -4315 4878 0
-5942 -5940 0
-5942 -5941 0
5942 5940 5941 0
-5937 -4314 0
-5937 4877 0
5937 4314 -4877 0
-5938 4314 0
-5938 -4877 0
5938 -4314 4877 0
-5939 -5937 0
-5939 -5938 0
5939 5937 5938 0
-5934 -4313 0
-5934 4876 0
5934 4313 -4876 0
-5935 4313 0
-5935 -4876 0
5935 -4313 4876 0
-5936 -5934 0
-5936 -5935 0
5936 5934 5935 0
-5931 -4312 0
-5931 4875 0
5931 4312 -4875 0
-5932 4312 0
-5932 -4875 0
5932 -4312 4875 0
-5933 -5931 0
-5933 -5932 0
5933 5931 5932 0
-5928 -4311 0
-5928 4874 0
5928 4311 -4874 0
-5929 4311 0
-5929 -4874 0
5929 -4311 4874 0
-5930 -5928 0
-5930 -5929 0
5930 5928 5929 0
-5925 -4310 0
-5925 4873 0
5925 4310 -4873 0
-5926 4310 0
-5926 -4873 0
5926 -4310 4873 0
-5927 -5925 0
-5927 -5926 0
5927 5925 5926 0
-5922 -4309 0
-5922 4872 0
5922 4309 -4872 0
-5923 4309 0
-5923 -4872 0
5923 -4309 4872 0
-5924 -5922 0
-5924 -5923 0
5924 5922 5923 0
-5919 -4308 0
-5919 4871 0
5919 4308 -4871 0
-5920 4308 0
-5920 -4871 0
5920 -4308 4871 0
-5921 -5919 0
-5921 -5920 0
5921 5919 5920 0
-5916 -4307 0
-5916 4870 0
5916 4307 -4870 0
-5917 4307 0
-5917 -4870 0
5917 -4307 4870 0
-5918 -5916 0
-5918 -5917 0
5918 5916 5917 0
-5913 -4306 0
-5913 4869 0
5913 4306 -4869 0
-5914 4306 0
-5914 -4869 0
5914 -4306 4869 0
-5915 -5913 0
-5915 -5914 0
5915 5913 5914 0
-5910 -4305 0
-5910 4868 0
5910 4305 -4868 0
-5911 4305 0
-5911 -4868 0
5911 -4305 4868 0
-5912 -5910 0
-5912 -5911 0
5912 5910 5911 0
-5907 -4304 0
-5907 4867 0
5907 4304 -4867 0
-5908 4304 0
-5908 -4867 0
5908 -4304 4867 0
-5909 -5907 0
-5909 -5908 0
5909 5907 5908 0
-5904 -4303 0
-5904 4866 0
5904 4303 -4866 0
-5905 4303 0
-5905 -4866 0
5905 -4303 4866 0
-5906 -5904 0
-5906 -5905 0
5906 5904 5905 0
-5901 -4302 0
-5901 4865 0
5901 4302 -4865 0
-5902 4302 0
-5902 -4865 0
5902 -4302 4865 0
-5903 -5901 0
-5903 -5902 0
5903 5901 5902 0
-5898 -4301 0
-5898 4864 0
5898 4301 -4864 0
-5899 4301 0
-5899 -4864 0
5899 -4301 4864 0
-5900 -5898 0
-5900 -5899 0
5900 5898 5899 0
-5895 -4300 0
-5895 4863 0
5895 4300 -4863 0
-5896 4300 0
-5896 -4863 0
5896 -4300 4863 0
-5897 -5895 0
-5897 -5896 0
5897 5895 5896 0
-5892 -4299 0
-5892 4862 0
5892 4299 -4862 0
-5893 4299 0
-5893 -4862 0
5893 -4299 4862 0
-5894 -5892 0
-5894 -5893 0
5894 5892 5893 0
-5889 -4298 0
-5889 4861 0
5889 4298 -4861 0
-5890 4298 0
-5890 -4861 0
5890 -4298 4861 0
-5891 -5889 0
-5891 -5890 0
5891 5889 5890 0
-5886 -4297 0
-5886 4860 0
5886 4297 -4860 0
-5887 4297 0
-5887 -4860 0
5887 -4297 4860 0
-5888 -5886 0
-5888 -5887 0
5888 5886 5887 0
-5883 -4296 0
-5883 4859 0
5883 4296 -4859 0
-5884 4296 0
-5884 -4859 0
5884 -4296 4859 0
-5885 -5883 0
-5885 -5884 0
5885 5883 5884 0
-5880 -4295 0
-5880 4858 0
5880 4295 -4858 0
-5881 4295 0
-5881 -4858 0
5881 -4295 4858 0
-5882 -5880 0
-5882 -5881 0
5882 5880 5881 0
-5877 -4294 0
-5877 4857 0
5877 4294 -4857 0
-5878 4294 0
-5878 -4857 0
5878 -4294 4857 0
-5879 -5877 0
-5879 -5878 0
5879 5877 5878 0
-5874 -4293 0
-5874 4856 0
5874 4293 -4856 0
-5875 4293 0
-5875 -4856 0
5875 -4293 4856 0
-5876 -5874 0
-5876 -5875 0
5876 5874 5875 0
-5871 -4292 0
-5871 4855 0
5871 4292 -4855 0
-5872 4292 0
-5872 -4855 0
5872 -4292 4855 0
-5873 -5871 0
-5873 -5872 0
5873 5871 5872 0
-5868 -4291 0
-5868 4854 0
5868 4291 -4854 0
-5869 4291 0
-5869 -4854 0
5869 -4291 4854 0
-5870 -5868 0
-5870 -5869 0
5870 5868 5869 0
-5865 -4290 0
-5865 4853 0
5865 4290 -4853 0
-5866 4290 0
-5866 -4853 0
5866 -4290 4853 0
-5867 -5865 0
-5867 -5866 0
5867 5865 5866 0
-5862 -4289 0
-5862 4852 0
5862 4289 -4852 0
-5863 4289 0
-5863 -4852 0
5863 -4289 4852 0
-5864 -5862 0
-5864 -5863 0
5864 5862 5863 0
-5859 -4288 0
-5859 4851 0
5859 4288 -4851 0
-5860 4288 0
-5860 -4851 0
5860 -4288 4851 0
-5861 -5859 0
-5861 -5860 0
5861 5859 5860 0
-5856 -4287 0
-5856 4850 0
5856 4287 -4850 0
-5857 4287 0
-5857 -4850 0
5857 -4287 4850 0
-5858 -5856 0
-5858 -5857 0
5858 5856 5857 0
-5853 -4286 0
-5853 4849 0
5853 4286 -4849 0
-5854 4286 0
-5854 -4849 0
5854 -4286 4849 0
-5855 -5853 0
-5855 -5854 0
5855 5853 5854 0
-5850 -4285 0
-5850 4848 0
5850 4285 -4848 0
-5851 4285 0
-5851 -4848 0
5851 -4285 4848 0
-5852 -5850 0
-5852 -5851 0
5852 5850 5851 0
-5847 -4284 0
-5847 4847 0
5847 4284 -4847 0
-5848 4284 0
-5848 -4847 0
5848 -4284 4847 0
-5849 -5847 0
-5849 -5848 0
5849 5847 5848 0
-5844 -4283 0
-5844 4846 0
5844 4283 -4846 0
-5845 4283 0
-5845 -4846 0
5845 -4283 4846 0
-5846 -5844 0
-5846 -5845 0
5846 5844 5845 0
-5841 -4282 0
-5841 4845 0
5841 4282 -4845 0
-5842 4282 0
-5842 -4845 0
5842 -4282 4845 0
-5843 -5841 0
-5843 -5842 0
5843 5841 5842 0
-5838 -4281 0
-5838 4844 0
5838 4281 -4844 0
-5839 4281 0
-5839 -4844 0
5839 -4281 4844 0
-5840 -5838 0
-5840 -5839 0
5840 5838 5839 0
-5835 -4280 0
-5835 4843 0
5835 4280 -4843 0
-5836 4280 0
-5836 -4843 0
5836 -4280 4843 0
-5837 -5835 0
-5837 -5836 0
5837 5835 5836 0
-5832 -4279 0
-5832 4842 0
5832 4279 -4842 0
-5833 4279 0
-5833 -4842 0
5833 -4279 4842 0
-5834 -5832 0
-5834 -5833 0
5834 5832 5833 0
-5829 -4278 0
-5829 4841 0
5829 4278 -4841 0
-5830 4278 0
-5830 -4841 0
5830 -4278 4841 0
-5831 -5829 0
-5831 -5830 0
5831 5829 5830 0
-5826 -4277 0
-5826 4840 0
5826 4277 -4840 0
-5827 4277 0
-5827 -4840 0
5827 -4277 4840 0
-5828 -5826 0
-5828 -5827 0
5828 5826 5827 0
-5823 -4276 0
-5823 4839 0
5823 4276 -4839 0
-5824 4276 0
-5824 -4839 0
5824 -4276 4839 0
-5825 -5823 0
-5825 -5824 0
5825 5823 5824 0
-5820 -4275 0
-5820 4838 0
5820 4275 -4838 0
-5821 4275 0
-5821 -4838 0
5821 -4275 4838 0
-5822 -5820 0
-5822 -5821 0
5822 5820 5821 0
-5817 -4274 0
-5817 4837 0
5817 4274 -4837 0
-5818 4274 0
-5818 -4837 0
5818 -4274 4837 0
-5819 -5817 0
-5819 -5818 0
5819 5817 5818 0
-5814 -4273 0
-5814 4836 0
5814 4273 -4836 0
-5815 4273 0
-5815 -4836 0
5815 -4273 4836 0
-5816 -5814 0
-5816 -5815 0
5816 5814 5815 0
-5811 -4272 0
-5811 4835 0
5811 4272 -4835 0
-5812 4272 0
-5812 -4835 0
5812 -4272 4835 0
-5813 -5811 0
-5813 -5812 0
5813 5811 5812 0
-5808 -4271 0
-5808 4834 0
5808 4271 -4834 0
-5809 4271 0
-5809 -4834 0
5809 -4271 4834 0
-5810 -5808 0
-5810 -5809 0
5810 5808 5809 0
-5805 -4270 0
-5805 4833 0
5805 4270 -4833 0
-5806 4270 0
-5806 -4833 0
5806 -4270 4833 0
-5807 -5805 0
-5807 -5806 0
5807 5805 5806 0
-5802 -4269 0
-5802 4832 0
5802 4269 -4832 0
-5803 4269 0
-5803 -4832 0
5803 -4269 4832 0
-5804 -5802 0
-5804 -5803 0
5804 5802 5803 0
-5799 -4268 0
-5799 4831 0
5799 4268 -4831 0
-5800 4268 0
-5800 -4831 0
5800 -4268 4831 0
-5801 -5799 0
-5801 -5800 0
5801 5799 5800 0
-5796 -4267 0
-5796 4830 0
5796 4267 -4830 0
-5797 4267 0
-5797 -4830 0
5797 -4267 4830 0
-5798 -5796 0
-5798 -5797 0
5798 5796 5797 0
-5793 -4266 0
-5793 4829 0
5793 4266 -4829 0
-5794 4266 0
-5794 -4829 0
5794 -4266 4829 0
-5795 -5793 0
-5795 -5794 0
5795 5793 5794 0
-5790 -4265 0
-5790 4828 0
5790 4265 -4828 0
-5791 4265 0
-5791 -4828 0
5791 -4265 4828 0
-5792 -5790 0
-5792 -5791 0
5792 5790 5791 0
-5787 -4264 0
-5787 4827 0
5787 4264 -4827 0
-5788 4264 0
-5788 -4827 0
5788 -4264 4827 0
-5789 -5787 0
-5789 -5788 0
5789 5787 5788 0
-5784 -4263 0
-5784 4826 0
5784 4263 -4826 0
-5785 4263 0
-5785 -4826 0
5785 -4263 4826 0
-5786 -5784 0
-5786 -5785 0
5786 5784 5785 0
-5781 -4262 0
-5781 4825 0
5781 4262 -4825 0
-5782 4262 0
-5782 -4825 0
5782 -4262 4825 0
-5783 -5781 0
-5783 -5782 0
5783 5781 5782 0
-5778 -4261 0
-5778 4824 0
5778 4261 -4824 0
-5779 4261 0
-5779 -4824 0
5779 -4261 4824 0
-5780 -5778 0
-5780 -5779 0
5780 5778 5779 0
-5775 -4260 0
-5775 4823 0
5775 4260 -4823 0
-5776 4260 0
-5776 -4823 0
5776 -4260 4823 0
-5777 -5775 0
-5777 -5776 0
5777 5775 5776 0
-5772 -4259 0
-5772 4822 0
5772 4259 -4822 0
-5773 4259 0
-5773 -4822 0
5773 -4259 4822 0
-5774 -5772 0
-5774 -5773 0
5774 5772 5773 0
-5769 -4258 0
-5769 4821 0
5769 4258 -4821 0
-5770 4258 0
-5770 -4821 0
5770 -4258 4821 0
-5771 -5769 0
-5771 -5770 0
5771 5769 5770 0
-5763 -4256 0
-5763 4819 0
5763 4256 -4819 0
-5764 4256 0
-5764 -4819 0
5764 -4256 4819 0
-5765 -5763 0
-5765 -5764 0
5765 5763 5764 0
-5766 -4257 0
-5766 4820 0
5766 4257 -4820 0
-5767 4257 0
-5767 -4820 0
5767 -4257 4820 0
-5768 -5766 0
-5768 -5767 0
5768 5766 5767 0
-5952 5765 0
-5952 5768 0
5952 -5765 -5768 0
-5953 5771 0
-5953 5952 0
5953 -5771 -5952 0
-5954 5774 0
-5954 5953 0
5954 -5774 -5953 0
-5955 5777 0
-5955 5954 0
5955 -5777 -5954 0
-5956 5780 0
-5956 5955 0
5956 -5780 -5955 0
-5957 5783 0
-5957 5956 0
5957 -5783 -5956 0
-5958 5786 0
-5958 5957 0
5958 -5786 -5957 0
-5959 5789 0
-5959 5958 0
5959 -5789 -5958 0
-5960 5792 0
-5960 5959 0
5960 -5792 -5959 0
-5961 5795 0
-5961 5960 0
5961 -5795 -5960 0
-5962 5798 0
-5962 5961 0
5962 -5798 -5961 0
-5963 5801 0
-5963 5962 0
5963 -5801 -5962 0
-5964 5804 0
-5964 5963 0
5964 -5804 -5963 0
-5965 5807 0
-5965 5964 0
5965 -5807 -5964 0
-5966 5810 0
-5966 5965 0
5966 -5810 -5965 0
-5967 5813 0
-5967 5966 0
5967 -5813 -5966 0
-5968 5816 0
-5968 5967 0
5968 -5816 -5967 0
-5969 5819 0
-5969 5968 0
5969 -5819 -5968 0
-5970 5822 0
-5970 5969 0
5970 -5822 -5969 0
-5971 5825 0
-5971 5970 0
5971 -5825 -5970 0
-5972 5828 0
-5972 5971 0
5972 -5828 -5971 0
-5973 5831 0
-5973 5972 0
5973 -5831 -5972 0
-5974 5834 0
-5974 5973 0
5974 -5834 -5973 0
-5975 5837 0
-5975 5974 0
5975 -5837 -5974 0
-5976 5840 0
-5976 5975 0
5976 -5840 -5975 0
-5977 5843 0
-5977 5976 0
5977 -5843 -5976 0
-5978 5846 0
-5978 5977 0
5978 -5846 -5977 0
-5979 5849 0
-5979 5978 0
5979 -5849 -5978 0
-5980 5852 0
-5980 5979 0
5980 -5852 -5979 0
-5981 5855 0
-5981 5980 0
5981 -5855 -5980 0
-5982 5858 0
-5982 5981 0
5982 -5858 -5981 0
-5983 5861 0
-5983 5982 0
5983 -5861 -5982 0
-5984 5864 0
-5984 5983 0
5984 -5864 -5983 0
-5985 5867 0
-5985 5984 0
5985 -5867 -5984 0
-5986 5870 0
-5986 5985 0
5986 -5870 -5985 0
-5987 5873 0
-5987 5986 0
5987 -5873 -5986 0
-5988 5876 0
-5988 5987 0
5988 -5876 -5987 0
-5989 5879 0
-5989 5988 0
5989 -5879 -5988 0
-5990 5882 0
-5990 5989 0
5990 -5882 -5989 0
-5991 5885 0
-5991 5990 0
5991 -5885 -5990 0
-5992 5888 0
-5992 5991 0
5992 -5888 -5991 0
-5993 5891 0
-5993 5992 0
5993 -5891 -5992 0
-5994 5894 0
-5994 5993 0
5994 -5894 -5993 0
-5995 5897 0
-5995 5994 0
5995 -5897 -5994 0
-5996 5900 0
-5996 5995 0
5996 -5900 -5995 0
-5997 5903 0
-5997 5996 0
5997 -5903 -5996 0
-5998 5906 0
-5998 5997 0
5998 -5906 -5997 0
-5999 5909 0
-5999 5998 0
5999 -5909 -5998 0
-6000 5912 0
-6000 5999 0
6000 -5912 -5999 0
-6001 5915 0
-6001 6000 0
6001 -5915 -6000 0
-6002 5918 0
-6002 6001 0
6002 -5918 -6001 0
-6003 5921 0
-6003 6002 0
6003 -5921 -6002 0
-6004 5924 0
-6004 6003 0
6004 -5924 -6003 0
-6005 5927 0
-6005 6004 0
6005 -5927 -6004 0
-6006 5930 0
-6006 6005 0
6006 -5930 -6005 0
-6007 5933 0
-6007 6006 0
6007 -5933 -6006 0
-6008 5936 0
-6008 6007 0
6008 -5936 -6007 0
-6009 5939 0
-6009 6008 0
6009 -5939 -6008 0
-6010 5942 0
-6010 6009 0
6010 -5942 -6009 0
-6011 5945 0
-6011 6010 0
6011 -5945 -6010 0
-6012 5948 0
-6012 6011 0
6012 -5948 -6011 0
-6013 5951 0
-6013 6012 0
6013 -5951 -6012 0
-6014 -4882 0
-6014 6013 0
6014 4882 -6013 0
-6015 -4213 0
-6015 -6014 0
6015 4213 6014 0
-6016 5762 0
-6016 -6015 0
6016 -5762 6015 0
6017 -16777 0
-6017 16777 0
-6018 -3510 0
-6018 6017 0
6018 3510 -6017 0
-6019 3510 0
-6019 -6017 0
6019 -3510 6017 0
-6020 -6018 0
-6020 -6019 0
6020 6018 6019 0
-6021 2398 0
-6021 -6020 0
6021 -2398 6020 0
-6022 6016 0
-6022 -6021 0
6022 -6016 6021 0
-6023 -2442 0
-6023 6017 0
6023 2442 -6017 0
-6024 2442 0
-6024 -6017 0
6024 -2442 6017 0
-6025 -6023 0
-6025 -6024 0
6025 6023 6024 0
-6026 -2398 0
-6026 -6025 0
6026 2398 6025 0
-6027 6022 0
-6027 -6026 0
6027 -6022 6026 0
6028 -16778 0
-6028 16778 0
-6029 -5322 0
-6029 6028 0
6029 5322 -6028 0
-6030 5322 0
-6030 -6028 0
6030 -5322 6028 0
-6031 -6029 0
-6031 -6030 0
6031 6029 6030 0
-6032 4213 0
-6032 -6031 0
6032 -4213 6031 0
-6033 6027 0
-6033 -6032 0
6033 -6027 6032 0
-6034 -6017 0
-6034 6028 0
6034 6017 -6028 0
-6035 6017 0
-6035 -6028 0
6035 -6017 6028 0
-6036 -6034 0
-6036 -6035 0
6036 6034 6035 0
-6037 -4213 0
-6037 -6036 0
6037 4213 6036 0
-6038 6033 0
-6038 -6037 0
6038 -6033 6037 0
6048 -16788 0
-6048 16788 0
6047 -16787 0
-6047 16787 0
6046 -16786 0
-6046 16786 0
6045 -16785 0
-6045 16785 0
6044 -16784 0
-6044 16784 0
6043 -16783 0
-6043 16783 0
6042 -16782 0
-6042 16782 0
6041 -16781 0
-6041 16781 0
6039 -16779 0
-6039 16779 0
6040 -16780 0
-6040 16780 0
-6049 6039 0
-6049 -6040 0
6049 -6039 6040 0
-6050 -6041 0
-6050 6049 0
6050 6041 -6049 0
-6051 -6042 0
-6051 6050 0
6051 6042 -6050 0
-6052 -6043 0
-6052 6051 0
6052 6043 -6051 0
-6053 -6044 0
-6053 6052 0
6053 6044 -6052 0
-6054 -6045 0
-6054 6053 0
6054 6045 -6053 0
-6055 -6046 0
-6055 6054 0
6055 6046 -6054 0
-6056 -6047 0
-6056 6055 0
6056 6047 -6055 0
-6057 -6048 0
-6057 6056 0
6057 6048 -6056 0
-6058 6028 0
-6058 -6057 0
6058 -6028 6057 0
-6059 6038 0
-6059 -6058 0
6059 -6038 6058 0
-6060 -6039 0
-6060 -6040 0
6060 6039 6040 0
-6061 -6041 0
-6061 6060 0
6061 6041 -6060 0
-6062 -6042 0
-6062 6061 0
6062 6042 -6061 0
-6063 -6043 0
-6063 6062 0
6063 6043 -6062 0
-6064 -6044 0
-6064 6063 0
6064 6044 -6063 0
-6065 -6045 0
-6065 6064 0
6065 6045 -6064 0
-6066 -6046 0
-6066 6065 0
6066 6046 -6065 0
-6067 -6047 0
-6067 6066 0
6067 6047 -6066 0
-6068 -6048 0
-6068 6067 0
6068 6048 -6067 0
-6069 -6028 0
-6069 -6068 0
6069 6028 6068 0
-6070 6059 0
-6070 -6069 0
6070 -6059 6069 0
6133 -16851 0
-6133 16851 0
6132 -16850 0
-6132 16850 0
-6317 -5508 0
-6317 6132 0
6317 5508 -6132 0
-6318 5508 0
-6318 -6132 0
6318 -5508 6132 0
-6319 -6317 0
-6319 -6318 0
6319 6317 6318 0
6131 -16849 0
-6131 16849 0
-6314 -5505 0
-6314 6131 0
6314 5505 -6131 0
-6315 5505 0
-6315 -6131 0
6315 -5505 6131 0
-6316 -6314 0
-6316 -6315 0
6316 6314 6315 0
6130 -16848 0
-6130 16848 0
-6311 -5502 0
-6311 6130 0
6311 5502 -6130 0
-6312 5502 0
-6312 -6130 0
6312 -5502 6130 0
-6313 -6311 0
-6313 -6312 0
6313 6311 6312 0
6129 -16847 0
-6129 16847 0
-6308 -5499 0
-6308 6129 0
6308 5499 -6129 0
-6309 5499 0
-6309 -6129 0
6309 -5499 6129 0
-6310 -6308 0
-6310 -6309 0
6310 6308 6309 0
6128 -16846 0
-6128 16846 0
-6305 -5496 0
-6305 6128 0
6305 5496 -6128 0
-6306 5496 0
-6306 -6128 0
6306 -5496 6128 0
-6307 -6305 0
-6307 -6306 0
6307 6305 6306 0
6127 -16845 0
-6127 16845 0
-6302 -5493 0
-6302 6127 0
6302 5493 -6127 0
-6303 5493 0
-6303 -6127 0
6303 -5493 6127 0
-6304 -6302 0
-6304 -6303 0
6304 6302 6303 0
6126 -16844 0
-6126 16844 0
-6299 -5490 0
-6299 6126 0
6299 5490 -6126 0
-6300 5490 0
-6300 -6126 0
6300 -5490 6126 0
-6301 -6299 0
-6301 -6300 0
6301 6299 6300 0
6125 -16843 0
-6125 16843 0
-6296 -5487 0
-6296 6125 0
6296 5487 -6125 0
-6297 5487 0
-6297 -6125 0
6297 -5487 6125 0
-6298 -6296 0
-6298 -6297 0
6298 6296 6297 0
6124 -16842 0
-6124 16842 0
-6293 -5484 0
-6293 6124 0
6293 5484 -6124 0
-6294 5484 0
-6294 -6124 0
6294 -5484 6124 0
-6295 -6293 0
-6295 -6294 0
6295 6293 6294 0
6123 -16841 0
-6123 16841 0
-6290 -5481 0
-6290 6123 0
6290 5481 -6123 0
-6291 5481 0
-6291 -6123 0
6291 -5481 6123 0
-6292 -6290 0
-6292 -6291 0
6292 6290 6291 0
6122 -16840 0
-6122 16840 0
-6287 -5478 0
-6287 6122 0
6287 5478 -6122 0
-6288 5478 0
-6288 -6122 0
6288 -5478 6122 0
-6289 -6287 0
-6289 -6288 0
6289 6287 6288 0
6121 -16839 0
-6121 16839 0
-6284 -5475 0
-6284 6121 0
6284 5475 -6121 0
-6285 5475 0
-6285 -6121 0
6285 -5475 6121 0
-6286 -6284 0
-6286 -6285 0
6286 6284 6285 0
6120 -16838 0
-6120 16838 0
-6281 -5472 0
-6281 6120 0
6281 5472 -6120 0
-6282 5472 0
-6282 -6120 0
6282 -5472 6120 0
-6283 -6281 0
-6283 -6282 0
6283 6281 6282 0
6119 -16837 0
-6119 16837 0
-6278 -5469 0
-6278 6119 0
6278 5469 -6119 0
-6279 5469 0
-6279 -6119 0
6279 -5469 6119 0
-6280 -6278 0
-6280 -6279 0
6280 6278 6279 0
6118 -16836 0
-6118 16836 0
-6275 -5466 0
-6275 6118 0
6275 5466 -6118 0
-6276 5466 0
-6276 -6118 0
6276 -5466 6118 0
-6277 -6275 0
-6277 -6276 0
6277 6275 6276 0
6117 -16835 0
-6117 16835 0
-6272 -5463 0
-6272 6117 0
6272 5463 -6117 0
-6273 5463 0
-6273 -6117 0
6273 -5463 6117 0
-6274 -6272 0
-6274 -6273 0
6274 6272 6273 0
6116 -16834 0
-6116 16834 0
-6269 -5460 0
-6269 6116 0
6269 5460 -6116 0
-6270 5460 0
-6270 -6116 0
6270 -5460 6116 0
-6271 -6269 0
-6271 -6270 0
6271 6269 6270 0
6115 -16833 0
-6115 16833 0
-6266 -5457 0
-6266 6115 0
6266 5457 -6115 0
-6267 5457 0
-6267 -6115 0
6267 -5457 6115 0
-6268 -6266 0
-6268 -6267 0
6268 6266 6267 0
6114 -16832 0
-6114 16832 0
-6263 -5454 0
-6263 6114 0
6263 5454 -6114 0
-6264 5454 0
-6264 -6114 0
6264 -5454 6114 0
-6265 -6263 0
-6265 -6264 0
6265 6263 6264 0
6113 -16831 0
-6113 16831 0
-6260 -5451 0
-6260 6113 0
6260 5451 -6113 0
-6261 5451 0
-6261 -6113 0
6261 -5451 6113 0
-6262 -6260 0
-6262 -6261 0
6262 6260 6261 0
6112 -16830 0
-6112 16830 0
-6257 -5448 0
-6257 6112 0
6257 5448 -6112 0
-6258 5448 0
-6258 -6112 0
6258 -5448 6112 0
-6259 -6257 0
-6259 -6258 0
6259 6257 6258 0
6111 -16829 0
-6111 16829 0
-6254 -5445 0
-6254 6111 0
6254 5445 -6111 0
-6255 5445 0
-6255 -6111 0
6255 -5445 6111 0
-6256 -6254 0
-6256 -6255 0
6256 6254 6255 0
6110 -16828 0
-6110 16828 0
-6251 -5442 0
-6251 6110 0
6251 5442 -6110 0
-6252 5442 0
-6252 -6110 0
6252 -5442 6110 0
-6253 -6251 0
-6253 -6252 0
6253 6251 6252 0
6109 -16827 0
-6109 16827 0
-6248 -5439 0
-6248 6109 0
6248 5439 -6109 0
-6249 5439 0
-6249 -6109 0
6249 -5439 6109 0
-6250 -6248 0
-6250 -6249 0
6250 6248 6249 0
6108 -16826 0
-6108 16826 0
-6245 -5436 0
-6245 6108 0
6245 5436 -6108 0
-6246 5436 0
-6246 -6108 0
6246 -5436 6108 0
-6247 -6245 0
-6247 -6246 0
6247 6245 6246 0
6107 -16825 0
-6107 16825 0
-6242 -5433 0
-6242 6107 0
6242 5433 -6107 0
-6243 5433 0
-6243 -6107 0
6243 -5433 6107 0
-6244 -6242 0
-6244 -6243 0
6244 6242 6243 0
6106 -16824 0
-6106 16824 0
-6239 -5430 0
-6239 6106 0
6239 5430 -6106 0
-6240 5430 0
-6240 -6106 0
6240 -5430 6106 0
-6241 -6239 0
-6241 -6240 0
6241 6239 6240 0
6105 -16823 0
-6105 16823 0
-6236 -5427 0
-6236 6105 0
6236 5427 -6105 0
-6237 5427 0
-6237 -6105 0
6237 -5427 6105 0
-6238 -6236 0
-6238 -6237 0
6238 6236 6237 0
6104 -16822 0
-6104 16822 0
-6233 -5424 0
-6233 6104 0
6233 5424 -6104 0
-6234 5424 0
-6234 -6104 0
6234 -5424 6104 0
-6235 -6233 0
-6235 -6234 0
6235 6233 6234 0
6103 -16821 0
-6103 16821 0
-6230 -5421 0
-6230 6103 0
6230 5421 -6103 0
-6231 5421 0
-6231 -6103 0
6231 -5421 6103 0
-6232 -6230 0
-6232 -6231 0
6232 6230 6231 0
6102 -16820 0
-6102 16820 0
-6227 -5418 0
-6227 6102 0
6227 5418 -6102 0
-6228 5418 0
-6228 -6102 0
6228 -5418 6102 0
-6229 -6227 0
-6229 -6228 0
6229 6227 6228 0
6101 -16819 0
-6101 16819 0
-6224 -5415 0
-6224 6101 0
6224 5415 -6101 0
-6225 5415 0
-6225 -6101 0
6225 -5415 6101 0
-6226 -6224 0
-6226 -6225 0
6226 6224 6225 0
6100 -16818 0
-6100 16818 0
-6221 -5412 0
-6221 6100 0
6221 5412 -6100 0
-6222 5412 0
-6222 -6100 0
6222 -5412 6100 0
-6223 -6221 0
-6223 -6222 0
6223 6221 6222 0
6099 -16817 0
-6099 16817 0
-6218 -5409 0
-6218 6099 0
6218 5409 -6099 0
-6219 5409 0
-6219 -6099 0
6219 -5409 6099 0
-6220 -6218 0
-6220 -6219 0
6220 6218 6219 0
6098 -16816 0
-6098 16816 0
-6215 -5406 0
-6215 6098 0
6215 5406 -6098 0
-6216 5406 0
-6216 -6098 0
6216 -5406 6098 0
-6217 -6215 0
-6217 -6216 0
6217 6215 6216 0
6097 -16815 0
-6097 16815 0
-6212 -5403 0
-6212 6097 0
6212 5403 -6097 0
-6213 5403 0
-6213 -6097 0
6213 -5403 6097 0
-6214 -6212 0
-6214 -6213 0
6214 6212 6213 0
6096 -16814 0
-6096 16814 0
-6209 -5400 0
-6209 6096 0
6209 5400 -6096 0
-6210 5400 0
-6210 -6096 0
6210 -5400 6096 0
-6211 -6209 0
-6211 -6210 0
6211 6209 6210 0
6095 -16813 0
-6095 16813 0
-6206 -5397 0
-6206 6095 0
6206 5397 -6095 0
-6207 5397 0
-6207 -6095 0
6207 -5397 6095 0
-6208 -6206 0
-6208 -6207 0
6208 6206 6207 0
6094 -16812 0
-6094 16812 0
-6203 -5394 0
-6203 6094 0
6203 5394 -6094 0
-6204 5394 0
-6204 -6094 0
6204 -5394 6094 0
-6205 -6203 0
-6205 -6204 0
6205 6203 6204 0
6093 -16811 0
-6093 16811 0
-6200 -5391 0
-6200 6093 0
6200 5391 -6093 0
-6201 5391 0
-6201 -6093 0
6201 -5391 6093 0
-6202 -6200 0
-6202 -6201 0
6202 6200 6201 0
6092 -16810 0
-6092 16810 0
-6197 -5388 0
-6197 6092 0
6197 5388 -6092 0
-6198 5388 0
-6198 -6092 0
6198 -5388 6092 0
-6199 -6197 0
-6199 -6198 0
6199 6197 6198 0
6091 -16809 0
-6091 16809 0
-6194 -5385 0
-6194 6091 0
6194 5385 -6091 0
-6195 5385 0
-6195 -6091 0
6195 -5385 6091 0
-6196 -6194 0
-6196 -6195 0
6196 6194 6195 0
6090 -16808 0
-6090 16808 0
-6191 -5382 0
-6191 6090 0
6191 5382 -6090 0
-6192 5382 0
-6192 -6090 0
6192 -5382 6090 0
-6193 -6191 0
-6193 -6192 0
6193 6191 6192 0
6089 -16807 0
-6089 16807 0
-6188 -5379 0
-6188 6089 0
6188 5379 -6089 0
-6189 5379 0
-6189 -6089 0
6189 -5379 6089 0
-6190 -6188 0
-6190 -6189 0
6190 6188 6189 0
6088 -16806 0
-6088 16806 0
-6185 -5376 0
-6185 6088 0
6185 5376 -6088 0
-6186 5376 0
-6186 -6088 0
6186 -5376 6088 0
-6187 -6185 0
-6187 -6186 0
6187 6185 6186 0
6087 -16805 0
-6087 16805 0
-6182 -5373 0
-6182 6087 0
6182 5373 -6087 0
-6183 5373 0
-6183 -6087 0
6183 -5373 6087 0
-6184 -6182 0
-6184 -6183 0
6184 6182 6183 0
6086 -16804 0
-6086 16804 0
-6179 -5370 0
-6179 6086 0
6179 5370 -6086 0
-6180 5370 0
-6180 -6086 0
6180 -5370 6086 0
-6181 -6179 0
-6181 -6180 0
6181 6179 6180 0
6085 -16803 0
-6085 16803 0
-6176 -5367 0
-6176 6085 0
6176 5367 -6085 0
-6177 5367 0
-6177 -6085 0
6177 -5367 6085 0
-6178 -6176 0
-6178 -6177 0
6178 6176 6177 0
6084 -16802 0
-6084 16802 0
-6173 -5364 0
-6173 6084 0
6173 5364 -6084 0
-6174 5364 0
-6174 -6084 0
6174 -5364 6084 0
-6175 -6173 0
-6175 -6174 0
6175 6173 6174 0
6083 -16801 0
-6083 16801 0
-6170 -5361 0
-6170 6083 0
6170 5361 -6083 0
-6171 5361 0
-6171 -6083 0
6171 -5361 6083 0
-6172 -6170 0
-6172 -6171 0
6172 6170 6171 0
6082 -16800 0
-6082 16800 0
-6167 -5358 0
-6167 6082 0
6167 5358 -6082 0
-6168 5358 0
-6168 -6082 0
6168 -5358 6082 0
-6169 -6167 0
-6169 -6168 0
6169 6167 6168 0
6081 -16799 0
-6081 16799 0
-6164 -5355 0
-6164 6081 0
6164 5355 -6081 0
-6165 5355 0
-6165 -6081 0
6165 -5355 6081 0
-6166 -6164 0
-6166 -6165 0
6166 6164 6165 0
6080 -16798 0
-6080 16798 0
-6161 -5352 0
-6161 6080 0
6161 5352 -6080 0
-6162 5352 0
-6162 -6080 0
6162 -5352 6080 0
-6163 -6161 0
-6163 -6162 0
6163 6161 6162 0
6079 -16797 0
-6079 16797 0
-6158 -5349 0
-6158 6079 0
6158 5349 -6079 0
-6159 5349 0
-6159 -6079 0
6159 -5349 6079 0
-6160 -6158 0
-6160 -6159 0
6160 6158 6159 0
6078 -16796 0
-6078 16796 0
-6155 -5346 0
-6155 6078 0
6155 5346 -6078 0
-6156 5346 0
-6156 -6078 0
6156 -5346 6078 0
-6157 -6155 0
-6157 -6156 0
6157 6155 6156 0
6077 -16795 0
-6077 16795 0
-6152 -5343 0
-6152 6077 0
6152 5343 -6077 0
-6153 5343 0
-6153 -6077 0
6153 -5343 6077 0
-6154 -6152 0
-6154 -6153 0
6154 6152 6153 0
6076 -16794 0
-6076 16794 0
-6149 -5340 0
-6149 6076 0
6149 5340 -6076 0
-6150 5340 0
-6150 -6076 0
6150 -5340 6076 0
-6151 -6149 0
-6151 -6150 0
6151 6149 6150 0
6075 -16793 0
-6075 16793 0
-6146 -5337 0
-6146 6075 0
6146 5337 -6075 0
-6147 5337 0
-6147 -6075 0
6147 -5337 6075 0
-6148 -6146 0
-6148 -6147 0
6148 6146 6147 0
6074 -16792 0
-6074 16792 0
-6143 -5334 0
-6143 6074 0
6143 5334 -6074 0
-6144 5334 0
-6144 -6074 0
6144 -5334 6074 0
-6145 -6143 0
-6145 -6144 0
6145 6143 6144 0
6073 -16791 0
-6073 16791 0
-6140 -5331 0
-6140 6073 0
6140 5331 -6073 0
-6141 5331 0
-6141 -6073 0
6141 -5331 6073 0
-6142 -6140 0
-6142 -6141 0
6142 6140 6141 0
6071 -16789 0
-6071 16789 0
-6134 -5325 0
-6134 6071 0
6134 5325 -6071 0
-6135 5325 0
-6135 -6071 0
6135 -5325 6071 0
-6136 -6134 0
-6136 -6135 0
6136 6134 6135 0
6072 -16790 0
-6072 16790 0
-6137 -5328 0
-6137 6072 0
6137 5328 -6072 0
-6138 5328 0
-6138 -6072 0
6138 -5328 6072 0
-6139 -6137 0
-6139 -6138 0
6139 6137 6138 0
-6320 6136 0
-6320 6139 0
6320 -6136 -6139 0
-6321 6142 0
-6321 6320 0
6321 -6142 -6320 0
-6322 6145 0
-6322 6321 0
6322 -6145 -6321 0
-6323 6148 0
-6323 6322 0
6323 -6148 -6322 0
-6324 6151 0
-6324 6323 0
6324 -6151 -6323 0
-6325 6154 0
-6325 6324 0
6325 -6154 -6324 0
-6326 6157 0
-6326 6325 0
6326 -6157 -6325 0
-6327 6160 0
-6327 6326 0
6327 -6160 -6326 0
-6328 6163 0
-6328 6327 0
6328 -6163 -6327 0
-6329 6166 0
-6329 6328 0
6329 -6166 -6328 0
-6330 6169 0
-6330 6329 0
6330 -6169 -6329 0
-6331 6172 0
-6331 6330 0
6331 -6172 -6330 0
-6332 6175 0
-6332 6331 0
6332 -6175 -6331 0
-6333 6178 0
-6333 6332 0
6333 -6178 -6332 0
-6334 6181 0
-6334 6333 0
6334 -6181 -6333 0
-6335 6184 0
-6335 6334 0
6335 -6184 -6334 0
-6336 6187 0
-6336 6335 0
6336 -6187 -6335 0
-6337 6190 0
-6337 6336 0
6337 -6190 -6336 0
-6338 6193 0
-6338 6337 0
6338 -6193 -6337 0
-6339 6196 0
-6339 6338 0
6339 -6196 -6338 0
-6340 6199 0
-6340 6339 0
6340 -6199 -6339 0
-6341 6202 0
-6341 6340 0
6341 -6202 -6340 0
-6342 6205 0
-6342 6341 0
6342 -6205 -6341 0
-6343 6208 0
-6343 6342 0
6343 -6208 -6342 0
-6344 6211 0
-6344 6343 0
6344 -6211 -6343 0
-6345 6214 0
-6345 6344 0
6345 -6214 -6344 0
-6346 6217 0
-6346 6345 0
6346 -6217 -6345 0
-6347 6220 0
-6347 6346 0
6347 -6220 -6346 0
-6348 6223 0
-6348 6347 0
6348 -6223 -6347 0
-6349 6226 0
-6349 6348 0
6349 -6226 -6348 0
-6350 6229 0
-6350 6349 0
6350 -6229 -6349 0
-6351 6232 0
-6351 6350 0
6351 -6232 -6350 0
-6352 6235 0
-6352 6351 0
6352 -6235 -6351 0
-6353 6238 0
-6353 6352 0
6353 -6238 -6352 0
-6354 6241 0
-6354 6353 0
6354 -6241 -6353 0
-6355 6244 0
-6355 6354 0
6355 -6244 -6354 0
-6356 6247 0
-6356 6355 0
6356 -6247 -6355 0
-6357 6250 0
-6357 6356 0
6357 -6250 -6356 0
-6358 6253 0
-6358 6357 0
6358 -6253 -6357 0
-6359 6256 0
-6359 6358 0
6359 -6256 -6358 0
-6360 6259 0
-6360 6359 0
6360 -6259 -6359 0
-6361 6262 0
-6361 6360 0
6361 -6262 -6360 0
-6362 6265 0
-6362 6361 0
6362 -6265 -6361 0
-6363 6268 0
-6363 6362 0
6363 -6268 -6362 0
-6364 6271 0
-6364 6363 0
6364 -6271 -6363 0
-6365 6274 0
-6365 6364 0
6365 -6274 -6364 0
-6366 6277 0
-6366 6365 0
6366 -6277 -6365 0
-6367 6280 0
-6367 6366 0
6367 -6280 -6366 0
-6368 6283 0
-6368 6367 0
6368 -6283 -6367 0
-6369 6286 0
-6369 6368 0
6369 -6286 -6368 0
-6370 6289 0
-6370 6369 0
6370 -6289 -6369 0
-6371 6292 0
-6371 6370 0
6371 -6292 -6370 0
-6372 6295 0
-6372 6371 0
6372 -6295 -6371 0
-6373 6298 0
-6373 6372 0
6373 -6298 -6372 0
-6374 6301 0
-6374 6373 0
6374 -6301 -6373 0
-6375 6304 0
-6375 6374 0
6375 -6304 -6374 0
-6376 6307 0
-6376 6375 0
6376 -6307 -6375 0
-6377 6310 0
-6377 6376 0
6377 -6310 -6376 0
-6378 6313 0
-6378 6377 0
6378 -6313 -6377 0
-6379 6316 0
-6379 6378 0
6379 -6316 -6378 0
-6380 6319 0
-6380 6379 0
6380 -6319 -6379 0
-6381 -6133 0
-6381 6380 0
6381 6133 -6380 0
-6382 4213 0
-6382 -6381 0
6382 -4213 6381 0
-6383 6070 0
-6383 -6382 0
6383 -6070 6382 0
-6567 -4318 0
-6567 6132 0
6567 4318 -6132 0
-6568 4318 0
-6568 -6132 0
6568 -4318 6132 0
-6569 -6567 0
-6569 -6568 0
6569 6567 6568 0
-6564 -4317 0
-6564 6131 0
6564 4317 -6131 0
-6565 4317 0
-6565 -6131 0
6565 -4317 6131 0
-6566 -6564 0
-6566 -6565 0
6566 6564 6565 0
-6561 -4316 0
-6561 6130 0
6561 4316 -6130 0
-6562 4316 0
-6562 -6130 0
6562 -4316 6130 0
-6563 -6561 0
-6563 -6562 0
6563 6561 6562 0
-6558 -4315 0
-6558 6129 0
6558 4315 -6129 0
-6559 4315 0
-6559 -6129 0
6559 -4315 6129 0
-6560 -6558 0
-6560 -6559 0
6560 6558 6559 0
-6555 -4314 0
-6555 6128 0
6555 4314 -6128 0
-6556 4314 0
-6556 -6128 0
6556 -4314 6128 0
-6557 -6555 0
-6557 -6556 0
6557 6555 6556 0
-6552 -4313 0
-6552 6127 0
6552 4313 -6127 0
-6553 4313 0
-6553 -6127 0
6553 -4313 6127 0
-6554 -6552 0
-6554 -6553 0
6554 6552 6553 0
-6549 -4312 0
-6549 6126 0
6549 4312 -6126 0
-6550 4312 0
-6550 -6126 0
6550 -4312 6126 0
-6551 -6549 0
-6551 -6550 0
6551 6549 6550 0
-6546 -4311 0
-6546 6125 0
6546 4311 -6125 0
-6547 4311 0
-6547 -6125 0
6547 -4311 6125 0
-6548 -6546 0
-6548 -6547 0
6548 6546 6547 0
-6543 -4310 0
-6543 6124 0
6543 4310 -6124 0
-6544 4310 0
-6544 -6124 0
6544 -4310 6124 0
-6545 -6543 0
-6545 -6544 0
6545 6543 6544 0
-6540 -4309 0
-6540 6123 0
6540 4309 -6123 0
-6541 4309 0
-6541 -6123 0
6541 -4309 6123 0
-6542 -6540 0
-6542 -6541 0
6542 6540 6541 0
-6537 -4308 0
-6537 6122 0
6537 4308 -6122 0
-6538 4308 0
-6538 -6122 0
6538 -4308 6122 0
-6539 -6537 0
-6539 -6538 0
6539 6537 6538 0
-6534 -4307 0
-6534 6121 0
6534 4307 -6121 0
-6535 4307 0
-6535 -6121 0
6535 -4307 6121 0
-6536 -6534 0
-6536 -6535 0
6536 6534 6535 0
-6531 -4306 0
-6531 6120 0
6531 4306 -6120 0
-6532 4306 0
-6532 -6120 0
6532 -4306 6120 0
-6533 -6531 0
-6533 -6532 0
6533 6531 6532 0
-6528 -4305 0
-6528 6119 0
6528 4305 -6119 0
-6529 4305 0
-6529 -6119 0
6529 -4305 6119 0
-6530 -6528 0
-6530 -6529 0
6530 6528 6529 0
-6525 -4304 0
-6525 6118 0
6525 4304 -6118 0
-6526 4304 0
-6526 -6118 0
6526 -4304 6118 0
-6527 -6525 0
-6527 -6526 0
6527 6525 6526 0
-6522 -4303 0
-6522 6117 0
6522 4303 -6117 0
-6523 4303 0
-6523 -6117 0
6523 -4303 6117 0
-6524 -6522 0
-6524 -6523 0
6524 6522 6523 0
-6519 -4302 0
-6519 6116 0
6519 4302 -6116 0
-6520 4302 0
-6520 -6116 0
6520 -4302 6116 0
-6521 -6519 0
-6521 -6520 0
6521 6519 6520 0
-6516 -4301 0
-6516 6115 0
6516 4301 -6115 0
-6517 4301 0
-6517 -6115 0
6517 -4301 6115 0
-6518 -6516 0
-6518 -6517 0
6518 6516 6517 0
-6513 -4300 0
-6513 6114 0
6513 4300 -6114 0
-6514 4300 0
-6514 -6114 0
6514 -4300 6114 0
-6515 -6513 0
-6515 -6514 0
6515 6513 6514 0
-6510 -4299 0
-6510 6113 0
6510 4299 -6113 0
-6511 4299 0
-6511 -6113 0
6511 -4299 6113 0
-6512 -6510 0
-6512 -6511 0
6512 6510 6511 0
-6507 -4298 0
-6507 6112 0
6507 4298 -6112 0
-6508 4298 0
-6508 -6112 0
6508 -4298 6112 0
-6509 -6507 0
-6509 -6508 0
6509 6507 6508 0
-6504 -4297 0
-6504 6111 0
6504 4297 -6111 0
-6505 4297 0
-6505 -6111 0
6505 -4297 6111 0
-6506 -6504 0
-6506 -6505 0
6506 6504 6505 0
-6501 -4296 0
-6501 6110 0
6501 4296 -6110 0
-6502 4296 0
-6502 -6110 0
6502 -4296 6110 0
-6503 -6501 0
-6503 -6502 0
6503 6501 6502 0
-6498 -4295 0
-6498 6109 0
6498 4295 -6109 0
-6499 4295 0
-6499 -6109 0
6499 -4295 6109 0
-6500 -6498 0
-6500 -6499 0
6500 6498 6499 0
-6495 -4294 0
-6495 6108 0
6495 4294 -6108 0
-6496 4294 0
-6496 -6108 0
6496 -4294 6108 0
-6497 -6495 0
-6497 -6496 0
6497 6495 6496 0
-6492 -4293 0
-6492 6107 0
6492 4293 -6107 0
-6493 4293 0
-6493 -6107 0
6493 -4293 6107 0
-6494 -6492 0
-6494 -6493 0
6494 6492 6493 0
-6489 -4292 0
-6489 6106 0
6489 4292 -6106 0
-6490 4292 0
-6490 -6106 0
6490 -4292 6106 0
-6491 -6489 0
-6491 -6490 0
6491 6489 6490 0
-6486 -4291 0
-6486 6105 0
6486 4291 -6105 0
-6487 4291 0
-6487 -6105 0
6487 -4291 6105 0
-6488 -6486 0
-6488 -6487 0
6488 6486 6487 0
-6483 -4290 0
-6483 6104 0
6483 4290 -6104 0
-6484 4290 0
-6484 -6104 0
6484 -4290 6104 0
-6485 -6483 0
-6485 -6484 0
6485 6483 6484 0
-6480 -4289 0
-6480 6103 0
6480 4289 -6103 0
-6481 4289 0
-6481 -6103 0
6481 -4289 6103 0
-6482 -6480 0
-6482 -6481 0
6482 6480 6481 0
-6477 -4288 0
-6477 6102 0
6477 4288 -6102 0
-6478 4288 0
-6478 -6102 0
6478 -4288 6102 0
-6479 -6477 0
-6479 -6478 0
6479 6477 6478 0
-6474 -4287 0
-6474 6101 0
6474 4287 -6101 0
-6475 4287 0
-6475 -6101 0
6475 -4287 6101 0
-6476 -6474 0
-6476 -6475 0
6476 6474 6475 0
-6471 -4286 0
-6471 6100 0
6471 4286 -6100 0
-6472 4286 0
-6472 -6100 0
6472 -4286 6100 0
-6473 -6471 0
-6473 -6472 0
6473 6471 6472 0
-6468 -4285 0
-6468 6099 0
6468 4285 -6099 0
-6469 4285 0
-6469 -6099 0
6469 -4285 6099 0
-6470 -6468 0
-6470 -6469 0
6470 6468 6469 0
-6465 -4284 0
-6465 6098 0
6465 4284 -6098 0
-6466 4284 0
-6466 -6098 0
6466 -4284 6098 0
-6467 -6465 0
-6467 -6466 0
6467 6465 6466 0
-6462 -4283 0
-6462 6097 0
6462 4283 -6097 0
-6463 4283 0
-6463 -6097 0
6463 -4283 6097 0
-6464 -6462 0
-6464 -6463 0
6464 6462 6463 0
-6459 -4282 0
-6459 6096 0
6459 4282 -6096 0
-6460 4282 0
-6460 -6096 0
6460 -4282 6096 0
-6461 -6459 0
-6461 -6460 0
6461 6459 6460 0
-6456 -4281 0
-6456 6095 0
6456 4281 -6095 0
-6457 4281 0
-6457 -6095 0
6457 -4281 6095 0
-6458 -6456 0
-6458 -6457 0
6458 6456 6457 0
-6453 -4280 0
-6453 6094 0
6453 4280 -6094 0
-6454 4280 0
-6454 -6094 0
6454 -4280 6094 0
-6455 -6453 0
-6455 -6454 0
6455 6453 6454 0
-6450 -4279 0
-6450 6093 0
6450 4279 -6093 0
-6451 4279 0
-6451 -6093 0
6451 -4279 6093 0
-6452 -6450 0
-6452 -6451 0
6452 6450 6451 0
-6447 -4278 0
-6447 6092 0
6447 4278 -6092 0
-6448 4278 0
-6448 -6092 0
6448 -4278 6092 0
-6449 -6447 0
-6449 -6448 0
6449 6447 6448 0
-6444 -4277 0
-6444 6091 0
6444 4277 -6091 0
-6445 4277 0
-6445 -6091 0
6445 -4277 6091 0
-6446 -6444 0
-6446 -6445 0
6446 6444 6445 0
-6441 -4276 0
-6441 6090 0
6441 4276 -6090 0
-6442 4276 0
-6442 -6090 0
6442 -4276 6090 0
-6443 -6441 0
-6443 -6442 0
6443 6441 6442 0
-6438 -4275 0
-6438 6089 0
6438 4275 -6089 0
-6439 4275 0
-6439 -6089 0
6439 -4275 6089 0
-6440 -6438 0
-6440 -6439 0
6440 6438 6439 0
-6435 -4274 0
-6435 6088 0
6435 4274 -6088 0
-6436 4274 0
-6436 -6088 0
6436 -4274 6088 0
-6437 -6435 0
-6437 -6436 0
6437 6435 6436 0
-6432 -4273 0
-6432 6087 0
6432 4273 -6087 0
-6433 4273 0
-6433 -6087 0
6433 -4273 6087 0
-6434 -6432 0
-6434 -6433 0
6434 6432 6433 0
-6429 -4272 0
-6429 6086 0
6429 4272 -6086 0
-6430 4272 0
-6430 -6086 0
6430 -4272 6086 0
-6431 -6429 0
-6431 -6430 0
6431 6429 6430 0
-6426 -4271 0
-6426 6085 0
6426 4271 -6085 0
-6427 4271 0
-6427 -6085 0
6427 -4271 6085 0
-6428 -6426 0
-6428 -6427 0
6428 6426 6427 0
-6423 -4270 0
-6423 6084 0
6423 4270 -6084 0
-6424 4270 0
-6424 -6084 0
6424 -4270 6084 0
-6425 -6423 0
-6425 -6424 0
6425 6423 6424 0
-6420 -4269 0
-6420 6083 0
6420 4269 -6083 0
-6421 4269 0
-6421 -6083 0
6421 -4269 6083 0
-6422 -6420 0
-6422 -6421 0
6422 6420 6421 0
-6417 -4268 0
-6417 6082 0
6417 4268 -6082 0
-6418 4268 0
-6418 -6082 0
6418 -4268 6082 0
-6419 -6417 0
-6419 -6418 0
6419 6417 6418 0
-6414 -4267 0
-6414 6081 0
6414 4267 -6081 0
-6415 4267 0
-6415 -6081 0
6415 -4267 6081 0
-6416 -6414 0
-6416 -6415 0
6416 6414 6415 0
-6411 -4266 0
-6411 6080 0
6411 4266 -6080 0
-6412 4266 0
-6412 -6080 0
6412 -4266 6080 0
-6413 -6411 0
-6413 -6412 0
6413 6411 6412 0
-6408 -4265 0
-6408 6079 0
6408 4265 -6079 0
-6409 4265 0
-6409 -6079 0
6409 -4265 6079 0
-6410 -6408 0
-6410 -6409 0
6410 6408 6409 0
-6405 -4264 0
-6405 6078 0
6405 4264 -6078 0
-6406 4264 0
-6406 -6078 0
6406 -4264 6078 0
-6407 -6405 0
-6407 -6406 0
6407 6405 6406 0
-6402 -4263 0
-6402 6077 0
6402 4263 -6077 0
-6403 4263 0
-6403 -6077 0
6403 -4263 6077 0
-6404 -6402 0
-6404 -6403 0
6404 6402 6403 0
-6399 -4262 0
-6399 6076 0
6399 4262 -6076 0
-6400 4262 0
-6400 -6076 0
6400 -4262 6076 0
-6401 -6399 0
-6401 -6400 0
6401 6399 6400 0
-6396 -4261 0
-6396 6075 0
6396 4261 -6075 0
-6397 4261 0
-6397 -6075 0
6397 -4261 6075 0
-6398 -6396 0
-6398 -6397 0
6398 6396 6397 0
-6393 -4260 0
-6393 6074 0
6393 4260 -6074 0
-6394 4260 0
-6394 -6074 0
6394 -4260 6074 0
-6395 -6393 0
-6395 -6394 0
6395 6393 6394 0
-6390 -4259 0
-6390 6073 0
6390 4259 -6073 0
-6391 4259 0
-6391 -6073 0
6391 -4259 6073 0
-6392 -6390 0
-6392 -6391 0
6392 6390 6391 0
-6384 -4257 0
-6384 6071 0
6384 4257 -6071 0
-6385 4257 0
-6385 -6071 0
6385 -4257 6071 0
-6386 -6384 0
-6386 -6385 0
6386 6384 6385 0
-6387 -4258 0
-6387 6072 0
6387 4258 -6072 0
-6388 4258 0
-6388 -6072 0
6388 -4258 6072 0
-6389 -6387 0
-6389 -6388 0
6389 6387 6388 0
-6570 6386 0
-6570 6389 0
6570 -6386 -6389 0
-6571 6392 0
-6571 6570 0
6571 -6392 -6570 0
-6572 6395 0
-6572 6571 0
6572 -6395 -6571 0
-6573 6398 0
-6573 6572 0
6573 -6398 -6572 0
-6574 6401 0
-6574 6573 0
6574 -6401 -6573 0
-6575 6404 0
-6575 6574 0
6575 -6404 -6574 0
-6576 6407 0
-6576 6575 0
6576 -6407 -6575 0
-6577 6410 0
-6577 6576 0
6577 -6410 -6576 0
-6578 6413 0
-6578 6577 0
6578 -6413 -6577 0
-6579 6416 0
-6579 6578 0
6579 -6416 -6578 0
-6580 6419 0
-6580 6579 0
6580 -6419 -6579 0
-6581 6422 0
-6581 6580 0
6581 -6422 -6580 0
-6582 6425 0
-6582 6581 0
6582 -6425 -6581 0
-6583 6428 0
-6583 6582 0
6583 -6428 -6582 0
-6584 6431 0
-6584 6583 0
6584 -6431 -6583 0
-6585 6434 0
-6585 6584 0
6585 -6434 -6584 0
-6586 6437 0
-6586 6585 0
6586 -6437 -6585 0
-6587 6440 0
-6587 6586 0
6587 -6440 -6586 0
-6588 6443 0
-6588 6587 0
6588 -6443 -6587 0
-6589 6446 0
-6589 6588 0
6589 -6446 -6588 0
-6590 6449 0
-6590 6589 0
6590 -6449 -6589 0
-6591 6452 0
-6591 6590 0
6591 -6452 -6590 0
-6592 6455 0
-6592 6591 0
6592 -6455 -6591 0
-6593 6458 0
-6593 6592 0
6593 -6458 -6592 0
-6594 6461 0
-6594 6593 0
6594 -6461 -6593 0
-6595 6464 0
-6595 6594 0
6595 -6464 -6594 0
-6596 6467 0
-6596 6595 0
6596 -6467 -6595 0
-6597 6470 0
-6597 6596 0
6597 -6470 -6596 0
-6598 6473 0
-6598 6597 0
6598 -6473 -6597 0
-6599 6476 0
-6599 6598 0
6599 -6476 -6598 0
-6600 6479 0
-6600 6599 0
6600 -6479 -6599 0
-6601 6482 0
-6601 6600 0
6601 -6482 -6600 0
-6602 6485 0
-6602 6601 0
6602 -6485 -6601 0
-6603 6488 0
-6603 6602 0
6603 -6488 -6602 0
-6604 6491 0
-6604 6603 0
6604 -6491 -6603 0
-6605 6494 0
-6605 6604 0
6605 -6494 -6604 0
-6606 6497 0
-6606 6605 0
6606 -6497 -6605 0
-6607 6500 0
-6607 6606 0
6607 -6500 -6606 0
-6608 6503 0
-6608 6607 0
6608 -6503 -6607 0
-6609 6506 0
-6609 6608 0
6609 -6506 -6608 0
-6610 6509 0
-6610 6609 0
6610 -6509 -6609 0
-6611 6512 0
-6611 6610 0
6611 -6512 -6610 0
-6612 6515 0
-6612 6611 0
6612 -6515 -6611 0
-6613 6518 0
-6613 6612 0
6613 -6518 -6612 0
-6614 6521 0
-6614 6613 0
6614 -6521 -6613 0
-6615 6524 0
-6615 6614 0
6615 -6524 -6614 0
-6616 6527 0
-6616 6615 0
6616 -6527 -6615 0
-6617 6530 0
-6617 6616 0
6617 -6530 -6616 0
-6618 6533 0
-6618 6617 0
6618 -6533 -6617 0
-6619 6536 0
-6619 6618 0
6619 -6536 -6618 0
-6620 6539 0
-6620 6619 0
6620 -6539 -6619 0
-6621 6542 0
-6621 6620 0
6621 -6542 -6620 0
-6622 6545 0
-6622 6621 0
6622 -6545 -6621 0
-6623 6548 0
-6623 6622 0
6623 -6548 -6622 0
-6624 6551 0
-6624 6623 0
6624 -6551 -6623 0
-6625 6554 0
-6625 6624 0
6625 -6554 -6624 0
-6626 6557 0
-6626 6625 0
6626 -6557 -6625 0
-6627 6560 0
-6627 6626 0
6627 -6560 -6626 0
-6628 6563 0
-6628 6627 0
6628 -6563 -6627 0
-6629 6566 0
-6629 6628 0
6629 -6566 -6628 0
-6630 6569 0
-6630 6629 0
6630 -6569 -6629 0
-6631 -6133 0
-6631 6630 0
6631 6133 -6630 0
-6632 -4213 0
-6632 -6631 0
6632 4213 6631 0
-6633 6383 0
-6633 -6632 0
6633 -6383 6632 0
6697 -16915 0
-6697 16915 0
6696 -16914 0
-6696 16914 0
-7121 4880 0
-7121 4881 0
7121 -4880 -4881 0
-7114 4879 0
-7114 4880 0
7114 -4879 -4880 0
-7107 4878 0
-7107 4879 0
7107 -4878 -4879 0
-7100 4877 0
-7100 4878 0
7100 -4877 -4878 0
-7093 4876 0
-7093 4877 0
7093 -4876 -4877 0
-7086 4875 0
-7086 4876 0
7086 -4875 -4876 0
-7079 4874 0
-7079 4875 0
7079 -4874 -4875 0
-7072 4873 0
-7072 4874 0
7072 -4873 -4874 0
-7065 4872 0
-7065 4873 0
7065 -4872 -4873 0
-7058 4871 0
-7058 4872 0
7058 -4871 -4872 0
-7051 4870 0
-7051 4871 0
7051 -4870 -4871 0
-7044 4869 0
-7044 4870 0
7044 -4869 -4870 0
-7037 4868 0
-7037 4869 0
7037 -4868 -4869 0
-7030 4867 0
-7030 4868 0
7030 -4867 -4868 0
-7023 4866 0
-7023 4867 0
7023 -4866 -4867 0
-7016 4865 0
-7016 4866 0
7016 -4865 -4866 0
-7009 4864 0
-7009 4865 0
7009 -4864 -4865 0
-7002 4863 0
-7002 4864 0
7002 -4863 -4864 0
-6995 4862 0
-6995 4863 0
6995 -4862 -4863 0
-6988 4861 0
-6988 4862 0
6988 -4861 -4862 0
-6981 4860 0
-6981 4861 0
6981 -4860 -4861 0
-6974 4859 0
-6974 4860 0
6974 -4859 -4860 0
-6967 4858 0
-6967 4859 0
6967 -4858 -4859 0
-6960 4857 0
-6960 4858 0
6960 -4857 -4858 0
-6953 4856 0
-6953 4857 0
6953 -4856 -4857 0
-6946 4855 0
-6946 4856 0
6946 -4855 -4856 0
-6939 4854 0
-6939 4855 0
6939 -4854 -4855 0
-6932 4853 0
-6932 4854 0
6932 -4853 -4854 0
-6925 4852 0
-6925 4853 0
6925 -4852 -4853 0
-6918 4851 0
-6918 4852 0
6918 -4851 -4852 0
-6911 4850 0
-6911 4851 0
6911 -4850 -4851 0
-6904 4849 0
-6904 4850 0
6904 -4849 -4850 0
-6897 4848 0
-6897 4849 0
6897 -4848 -4849 0
-6890 4847 0
-6890 4848 0
6890 -4847 -4848 0
-6883 4846 0
-6883 4847 0
6883 -4846 -4847 0
-6876 4845 0
-6876 4846 0
6876 -4845 -4846 0
-6869 4844 0
-6869 4845 0
6869 -4844 -4845 0
-6862 4843 0
-6862 4844 0
6862 -4843 -4844 0
-6855 4842 0
-6855 4843 0
6855 -4842 -4843 0
-6848 4841 0
-6848 4842 0
6848 -4841 -4842 0
-6841 4840 0
-6841 4841 0
6841 -4840 -4841 0
-6834 4839 0
-6834 4840 0
6834 -4839 -4840 0
-6827 4838 0
-6827 4839 0
6827 -4838 -4839 0
-6820 4837 0
-6820 4838 0
6820 -4837 -4838 0
-6813 4836 0
-6813 4837 0
6813 -4836 -4837 0
-6806 4835 0
-6806 4836 0
6806 -4835 -4836 0
-6799 4834 0
-6799 4835 0
6799 -4834 -4835 0
-6792 4833 0
-6792 4834 0
6792 -4833 -4834 0
-6785 4832 0
-6785 4833 0
6785 -4832 -4833 0
-6778 4831 0
-6778 4832 0
6778 -4831 -4832 0
-6771 4830 0
-6771 4831 0
6771 -4830 -4831 0
-6764 4829 0
-6764 4830 0
6764 -4829 -4830 0
-6757 4828 0
-6757 4829 0
6757 -4828 -4829 0
-6750 4827 0
-6750 4828 0
6750 -4827 -4828 0
-6743 4826 0
-6743 4827 0
6743 -4826 -4827 0
-6736 4825 0
-6736 4826 0
6736 -4825 -4826 0
-6729 4824 0
-6729 4825 0
6729 -4824 -4825 0
-6722 4823 0
-6722 4824 0
6722 -4823 -4824 0
-6715 4822 0
-6715 4823 0
6715 -4822 -4823 0
-6708 4821 0
-6708 4822 0
6708 -4821 -4822 0
-6701 4820 0
-6701 4821 0
6701 -4820 -4821 0
-6698 4819 0
-6698 4820 0
6698 -4819 -4820 0
-6702 -4820 0
-6702 -4821 0
6702 4820 4821 0
-6703 -6701 0
-6703 -6702 0
6703 6701 6702 0
-6704 6698 0
-6704 6703 0
6704 -6698 -6703 0
-6707 -6701 0
-6707 -6704 0
6707 6701 6704 0
-6709 -4821 0
-6709 -4822 0
6709 4821 4822 0
-6710 -6708 0
-6710 -6709 0
6710 6708 6709 0
-6711 -6707 0
-6711 6710 0
6711 6707 -6710 0
-6714 -6708 0
-6714 -6711 0
6714 6708 6711 0
-6716 -4822 0
-6716 -4823 0
6716 4822 4823 0
-6717 -6715 0
-6717 -6716 0
6717 6715 6716 0
-6718 -6714 0
-6718 6717 0
6718 6714 -6717 0
-6721 -6715 0
-6721 -6718 0
6721 6715 6718 0
-6723 -4823 0
-6723 -4824 0
6723 4823 4824 0
-6724 -6722 0
-6724 -6723 0
6724 6722 6723 0
-6725 -6721 0
-6725 6724 0
6725 6721 -6724 0
-6728 -6722 0
-6728 -6725 0
6728 6722 6725 0
-6730 -4824 0
-6730 -4825 0
6730 4824 4825 0
-6731 -6729 0
-6731 -6730 0
6731 6729 6730 0
-6732 -6728 0
-6732 6731 0
6732 6728 -6731 0
-6735 -6729 0
-6735 -6732 0
6735 6729 6732 0
-6737 -4825 0
-6737 -4826 0
6737 4825 4826 0
-6738 -6736 0
-6738 -6737 0
6738 6736 6737 0
-6739 -6735 0
-6739 6738 0
6739 6735 -6738 0
-6742 -6736 0
-6742 -6739 0
6742 6736 6739 0
-6744 -4826 0
-6744 -4827 0
6744 4826 4827 0
-6745 -6743 0
-6745 -6744 0
6745 6743 6744 0
-6746 -6742 0
-6746 6745 0
6746 6742 -6745 0
-6749 -6743 0
-6749 -6746 0
6749 6743 6746 0
-6751 -4827 0
-6751 -4828 0
6751 4827 4828 0
-6752 -6750 0
-6752 -6751 0
6752 6750 6751 0
-6753 -6749 0
-6753 6752 0
6753 6749 -6752 0
-6756 -6750 0
-6756 -6753 0
6756 6750 6753 0
-6758 -4828 0
-6758 -4829 0
6758 4828 4829 0
-6759 -6757 0
-6759 -6758 0
6759 6757 6758 0
-6760 -6756 0
-6760 6759 0
6760 6756 -6759 0
-6763 -6757 0
-6763 -6760 0
6763 6757 6760 0
-6765 -4829 0
-6765 -4830 0
6765 4829 4830 0
-6766 -6764 0
-6766 -6765 0
6766 6764 6765 0
-6767 -6763 0
-6767 6766 0
6767 6763 -6766 0
-6770 -6764 0
-6770 -6767 0
6770 6764 6767 0
-6772 -4830 0
-6772 -4831 0
6772 4830 4831 0
-6773 -6771 0
-6773 -6772 0
6773 6771 6772 0
-6774 -6770 0
-6774 6773 0
6774 6770 -6773 0
-6777 -6771 0
-6777 -6774 0
6777 6771 6774 0
-6779 -4831 0
-6779 -4832 0
6779 4831 4832 0
-6780 -6778 0
-6780 -6779 0
6780 6778 6779 0
-6781 -6777 0
-6781 6780 0
6781 6777 -6780 0
-6784 -6778 0
-6784 -6781 0
6784 6778 6781 0
-6786 -4832 0
-6786 -4833 0
6786 4832 4833 0
-6787 -6785 0
-6787 -6786 0
6787 6785 6786 0
-6788 -6784 0
-6788 6787 0
6788 6784 -6787 0
-6791 -6785 0
-6791 -6788 0
6791 6785 6788 0
-6793 -4833 0
-6793 -4834 0
6793 4833 4834 0
-6794 -6792 0
-6794 -6793 0
6794 6792 6793 0
-6795 -6791 0
-6795 6794 0
6795 6791 -6794 0
-6798 -6792 0
-6798 -6795 0
6798 6792 6795 0
-6800 -4834 0
-6800 -4835 0
6800 4834 4835 0
-6801 -6799 0
-6801 -6800 0
6801 6799 6800 0
-6802 -6798 0
-6802 6801 0
6802 6798 -6801 0
-6805 -6799 0
-6805 -6802 0
6805 6799 6802 0
-6807 -4835 0
-6807 -4836 0
6807 4835 4836 0
-6808 -6806 0
-6808 -6807 0
6808 6806 6807 0
-6809 -6805 0
-6809 6808 0
6809 6805 -6808 0
-6812 -6806 0
-6812 -6809 0
6812 6806 6809 0
-6814 -4836 0
-6814 -4837 0
6814 4836 4837 0
-6815 -6813 0
-6815 -6814 0
6815 6813 6814 0
-6816 -6812 0
-6816 6815 0
6816 6812 -6815 0
-6819 -6813 0
-6819 -6816 0
6819 6813 6816 0
-6821 -4837 0
-6821 -4838 0
6821 4837 4838 0
-6822 -6820 0
-6822 -6821 0
6822 6820 6821 0
-6823 -6819 0
-6823 6822 0
6823 6819 -6822 0
-6826 -6820 0
-6826 -6823 0
6826 6820 6823 0
-6828 -4838 0
-6828 -4839 0
6828 4838 4839 0
-6829 -6827 0
-6829 -6828 0
6829 6827 6828 0
-6830 -6826 0
-6830 6829 0
6830 6826 -6829 0
-6833 -6827 0
-6833 -6830 0
6833 6827 6830 0
-6835 -4839 0
-6835 -4840 0
6835 4839 4840 0
-6836 -6834 0
-6836 -6835 0
6836 6834 6835 0
-6837 -6833 0
-6837 6836 0
6837 6833 -6836 0
-6840 -6834 0
-6840 -6837 0
6840 6834 6837 0
-6842 -4840 0
-6842 -4841 0
6842 4840 4841 0
-6843 -6841 0
-6843 -6842 0
6843 6841 6842 0
-6844 -6840 0
-6844 6843 0
6844 6840 -6843 0
-6847 -6841 0
-6847 -6844 0
6847 6841 6844 0
-6849 -4841 0
-6849 -4842 0
6849 4841 4842 0
-6850 -6848 0
-6850 -6849 0
6850 6848 6849 0
-6851 -6847 0
-6851 6850 0
6851 6847 -6850 0
-6854 -6848 0
-6854 -6851 0
6854 6848 6851 0
-6856 -4842 0
-6856 -4843 0
6856 4842 4843 0
-6857 -6855 0
-6857 -6856 0
6857 6855 6856 0
-6858 -6854 0
-6858 6857 0
6858 6854 -6857 0
-6861 -6855 0
-6861 -6858 0
6861 6855 6858 0
-6863 -4843 0
-6863 -4844 0
6863 4843 4844 0
-6864 -6862 0
-6864 -6863 0
6864 6862 6863 0
-6865 -6861 0
-6865 6864 0
6865 6861 -6864 0
-6868 -6862 0
-6868 -6865 0
6868 6862 6865 0
-6870 -4844 0
-6870 -4845 0
6870 4844 4845 0
-6871 -6869 0
-6871 -6870 0
6871 6869 6870 0
-6872 -6868 0
-6872 6871 0
6872 6868 -6871 0
-6875 -6869 0
-6875 -6872 0
6875 6869 6872 0
-6877 -4845 0
-6877 -4846 0
6877 4845 4846 0
-6878 -6876 0
-6878 -6877 0
6878 6876 6877 0
-6879 -6875 0
-6879 6878 0
6879 6875 -6878 0
-6882 -6876 0
-6882 -6879 0
6882 6876 6879 0
-6884 -4846 0
-6884 -4847 0
6884 4846 4847 0
-6885 -6883 0
-6885 -6884 0
6885 6883 6884 0
-6886 -6882 0
-6886 6885 0
6886 6882 -6885 0
-6889 -6883 0
-6889 -6886 0
6889 6883 6886 0
-6891 -4847 0
-6891 -4848 0
6891 4847 4848 0
-6892 -6890 0
-6892 -6891 0
6892 6890 6891 0
-6893 -6889 0
-6893 6892 0
6893 6889 -6892 0
-6896 -6890 0
-6896 -6893 0
6896 6890 6893 0
-6898 -4848 0
-6898 -4849 0
6898 4848 4849 0
-6899 -6897 0
-6899 -6898 0
6899 6897 6898 0
-6900 -6896 0
-6900 6899 0
6900 6896 -6899 0
-6903 -6897 0
-6903 -6900 0
6903 6897 6900 0
-6905 -4849 0
-6905 -4850 0
6905 4849 4850 0
-6906 -6904 0
-6906 -6905 0
6906 6904 6905 0
-6907 -6903 0
-6907 6906 0
6907 6903 -6906 0
-6910 -6904 0
-6910 -6907 0
6910 6904 6907 0
-6912 -4850 0
-6912 -4851 0
6912 4850 4851 0
-6913 -6911 0
-6913 -6912 0
6913 6911 6912 0
-6914 -6910 0
-6914 6913 0
6914 6910 -6913 0
-6917 -6911 0
-6917 -6914 0
6917 6911 6914 0
-6919 -4851 0
-6919 -4852 0
6919 4851 4852 0
-6920 -6918 0
-6920 -6919 0
6920 6918 6919 0
-6921 -6917 0
-6921 6920 0
6921 6917 -6920 0
-6924 -6918 0
-6924 -6921 0
6924 6918 6921 0
-6926 -4852 0
-6926 -4853 0
6926 4852 4853 0
-6927 -6925 0
-6927 -6926 0
6927 6925 6926 0
-6928 -6924 0
-6928 6927 0
6928 6924 -6927 0
-6931 -6925 0
-6931 -6928 0
6931 6925 6928 0
-6933 -4853 0
-6933 -4854 0
6933 4853 4854 0
-6934 -6932 0
-6934 -6933 0
6934 6932 6933 0
-6935 -6931 0
-6935 6934 0
6935 6931 -6934 0
-6938 -6932 0
-6938 -6935 0
6938 6932 6935 0
-6940 -4854 0
-6940 -4855 0
6940 4854 4855 0
-6941 -6939 0
-6941 -6940 0
6941 6939 6940 0
-6942 -6938 0
-6942 6941 0
6942 6938 -6941 0
-6945 -6939 0
-6945 -6942 0
6945 6939 6942 0
-6947 -4855 0
-6947 -4856 0
6947 4855 4856 0
-6948 -6946 0
-6948 -6947 0
6948 6946 6947 0
-6949 -6945 0
-6949 6948 0
6949 6945 -6948 0
-6952 -6946 0
-6952 -6949 0
6952 6946 6949 0
-6954 -4856 0
-6954 -4857 0
6954 4856 4857 0
-6955 -6953 0
-6955 -6954 0
6955 6953 6954 0
-6956 -6952 0
-6956 6955 0
6956 6952 -6955 0
-6959 -6953 0
-6959 -6956 0
6959 6953 6956 0
-6961 -4857 0
-6961 -4858 0
6961 4857 4858 0
-6962 -6960 0
-6962 -6961 0
6962 6960 6961 0
-6963 -6959 0
-6963 6962 0
6963 6959 -6962 0
-6966 -6960 0
-6966 -6963 0
6966 6960 6963 0
-6968 -4858 0
-6968 -4859 0
6968 4858 4859 0
-6969 -6967 0
-6969 -6968 0
6969 6967 6968 0
-6970 -6966 0
-6970 6969 0
6970 6966 -6969 0
-6973 -6967 0
-6973 -6970 0
6973 6967 6970 0
-6975 -4859 0
-6975 -4860 0
6975 4859 4860 0
-6976 -6974 0
-6976 -6975 0
6976 6974 6975 0
-6977 -6973 0
-6977 6976 0
6977 6973 -6976 0
-6980 -6974 0
-6980 -6977 0
6980 6974 6977 0
-6982 -4860 0
-6982 -4861 0
6982 4860 4861 0
-6983 -6981 0
-6983 -6982 0
6983 6981 6982 0
-6984 -6980 0
-6984 6983 0
6984 6980 -6983 0
-6987 -6981 0
-6987 -6984 0
6987 6981 6984 0
-6989 -4861 0
-6989 -4862 0
6989 4861 4862 0
-6990 -6988 0
-6990 -6989 0
6990 6988 6989 0
-6991 -6987 0
-6991 6990 0
6991 6987 -6990 0
-6994 -6988 0
-6994 -6991 0
6994 6988 6991 0
-6996 -4862 0
-6996 -4863 0
6996 4862 4863 0
-6997 -6995 0
-6997 -6996 0
6997 6995 6996 0
-6998 -6994 0
-6998 6997 0
6998 6994 -6997 0
-7001 -6995 0
-7001 -6998 0
7001 6995 6998 0
-7003 -4863 0
-7003 -4864 0
7003 4863 4864 0
-7004 -7002 0
-7004 -7003 0
7004 7002 7003 0
-7005 -7001 0
-7005 7004 0
7005 7001 -7004 0
-7008 -7002 0
-7008 -7005 0
7008 7002 7005 0
-7010 -4864 0
-7010 -4865 0
7010 4864 4865 0
-7011 -7009 0
-7011 -7010 0
7011 7009 7010 0
-7012 -7008 0
-7012 7011 0
7012 7008 -7011 0
-7015 -7009 0
-7015 -7012 0
7015 7009 7012 0
-7017 -4865 0
-7017 -4866 0
7017 4865 4866 0
-7018 -7016 0
-7018 -7017 0
7018 7016 7017 0
-7019 -7015 0
-7019 7018 0
7019 7015 -7018 0
-7022 -7016 0
-7022 -7019 0
7022 7016 7019 0
-7024 -4866 0
-7024 -4867 0
7024 4866 4867 0
-7025 -7023 0
-7025 -7024 0
7025 7023 7024 0
-7026 -7022 0
-7026 7025 0
7026 7022 -7025 0
-7029 -7023 0
-7029 -7026 0
7029 7023 7026 0
-7031 -4867 0
-7031 -4868 0
7031 4867 4868 0
-7032 -7030 0
-7032 -7031 0
7032 7030 7031 0
-7033 -7029 0
-7033 7032 0
7033 7029 -7032 0
-7036 -7030 0
-7036 -7033 0
7036 7030 7033 0
-7038 -4868 0
-7038 -4869 0
7038 4868 4869 0
-7039 -7037 0
-7039 -7038 0
7039 7037 7038 0
-7040 -7036 0
-7040 7039 0
7040 7036 -7039 0
-7043 -7037 0
-7043 -7040 0
7043 7037 7040 0
-7045 -4869 0
-7045 -4870 0
7045 4869 4870 0
-7046 -7044 0
-7046 -7045 0
7046 7044 7045 0
-7047 -7043 0
-7047 7046 0
7047 7043 -7046 0
-7050 -7044 0
-7050 -7047 0
7050 7044 7047 0
-7052 -4870 0
-7052 -4871 0
7052 4870 4871 0
-7053 -7051 0
-7053 -7052 0
7053 7051 7052 0
-7054 -7050 0
-7054 7053 0
7054 7050 -7053 0
-7057 -7051 0
-7057 -7054 0
7057 7051 7054 0
-7059 -4871 0
-7059 -4872 0
7059 4871 4872 0
-7060 -7058 0
-7060 -7059 0
7060 7058 7059 0
-7061 -7057 0
-7061 7060 0
7061 7057 -7060 0
-7064 -7058 0
-7064 -7061 0
7064 7058 7061 0
-7066 -4872 0
-7066 -4873 0
7066 4872 4873 0
-7067 -7065 0
-7067 -7066 0
7067 7065 7066 0
-7068 -7064 0
-7068 7067 0
7068 7064 -7067 0
-7071 -7065 0
-7071 -7068 0
7071 7065 7068 0
-7073 -4873 0
-7073 -4874 0
7073 4873 4874 0
-7074 -7072 0
-7074 -7073 0
7074 7072 7073 0
-7075 -7071 0
-7075 7074 0
7075 7071 -7074 0
-7078 -7072 0
-7078 -7075 0
7078 7072 7075 0
-7080 -4874 0
-7080 -4875 0
7080 4874 4875 0
-7081 -7079 0
-7081 -7080 0
7081 7079 7080 0
-7082 -7078 0
-7082 7081 0
7082 7078 -7081 0
-7085 -7079 0
-7085 -7082 0
7085 7079 7082 0
-7087 -4875 0
-7087 -4876 0
7087 4875 4876 0
-7088 -7086 0
-7088 -7087 0
7088 7086 7087 0
-7089 -7085 0
-7089 7088 0
7089 7085 -7088 0
-7092 -7086 0
-7092 -7089 0
7092 7086 7089 0
-7094 -4876 0
-7094 -4877 0
7094 4876 4877 0
-7095 -7093 0
-7095 -7094 0
7095 7093 7094 0
-7096 -7092 0
-7096 7095 0
7096 7092 -7095 0
-7099 -7093 0
-7099 -7096 0
7099 7093 7096 0
-7101 -4877 0
-7101 -4878 0
7101 4877 4878 0
-7102 -7100 0
-7102 -7101 0
7102 7100 7101 0
-7103 -7099 0
-7103 7102 0
7103 7099 -7102 0
-7106 -7100 0
-7106 -7103 0
7106 7100 7103 0
-7108 -4878 0
-7108 -4879 0
7108 4878 4879 0
-7109 -7107 0
-7109 -7108 0
7109 7107 7108 0
-7110 -7106 0
-7110 7109 0
7110 7106 -7109 0
-7113 -7107 0
-7113 -7110 0
7113 7107 7110 0
-7115 -4879 0
-7115 -4880 0
7115 4879 4880 0
-7116 -7114 0
-7116 -7115 0
7116 7114 7115 0
-7117 -7113 0
-7117 7116 0
7117 7113 -7116 0
-7120 -7114 0
-7120 -7117 0
7120 7114 7117 0
-7122 -4880 0
-7122 -4881 0
7122 4880 4881 0
-7123 -7121 0
-7123 -7122 0
7123 7121 7122 0
-7124 -7120 0
-7124 7123 0
7124 7120 -7123 0
-7127 -7121 0
-7127 -7124 0
7127 7121 7124 0
-7128 4881 0
-7128 4882 0
7128 -4881 -4882 0
-7129 -4881 0
-7129 -4882 0
7129 4881 4882 0
-7130 -7128 0
-7130 -7129 0
7130 7128 7129 0
-7131 -7127 0
-7131 7130 0
7131 7127 -7130 0
-7132 7127 0
-7132 -7130 0
7132 -7127 7130 0
-7133 -7131 0
-7133 -7132 0
7133 7131 7132 0
-7125 7120 0
-7125 -7123 0
7125 -7120 7123 0
-7126 -7124 0
-7126 -7125 0
7126 7124 7125 0
-7118 7113 0
-7118 -7116 0
7118 -7113 7116 0
-7119 -7117 0
-7119 -7118 0
7119 7117 7118 0
-7111 7106 0
-7111 -7109 0
7111 -7106 7109 0
-7112 -7110 0
-7112 -7111 0
7112 7110 7111 0
-7104 7099 0
-7104 -7102 0
7104 -7099 7102 0
-7105 -7103 0
-7105 -7104 0
7105 7103 7104 0
-7097 7092 0
-7097 -7095 0
7097 -7092 7095 0
-7098 -7096 0
-7098 -7097 0
7098 7096 7097 0
-7090 7085 0
-7090 -7088 0
7090 -7085 7088 0
-7091 -7089 0
-7091 -7090 0
7091 7089 7090 0
-7083 7078 0
-7083 -7081 0
7083 -7078 7081 0
-7084 -7082 0
-7084 -7083 0
7084 7082 7083 0
-7076 7071 0
-7076 -7074 0
7076 -7071 7074 0
-7077 -7075 0
-7077 -7076 0
7077 7075 7076 0
-7069 7064 0
-7069 -7067 0
7069 -7064 7067 0
-7070 -7068 0
-7070 -7069 0
7070 7068 7069 0
-7062 7057 0
-7062 -7060 0
7062 -7057 7060 0
-7063 -7061 0
-7063 -7062 0
7063 7061 7062 0
-7055 7050 0
-7055 -7053 0
7055 -7050 7053 0
-7056 -7054 0
-7056 -7055 0
7056 7054 7055 0
-7048 7043 0
-7048 -7046 0
7048 -7043 7046 0
-7049 -7047 0
-7049 -7048 0
7049 7047 7048 0
-7041 7036 0
-7041 -7039 0
7041 -7036 7039 0
-7042 -7040 0
-7042 -7041 0
7042 7040 7041 0
-7034 7029 0
-7034 -7032 0
7034 -7029 7032 0
-7035 -7033 0
-7035 -7034 0
7035 7033 7034 0
-7027 7022 0
-7027 -7025 0
7027 -7022 7025 0
-7028 -7026 0
-7028 -7027 0
7028 7026 7027 0
-7020 7015 0
-7020 -7018 0
7020 -7015 7018 0
-7021 -7019 0
-7021 -7020 0
7021 7019 7020 0
-7013 7008 0
-7013 -7011 0
7013 -7008 7011 0
-7014 -7012 0
-7014 -7013 0
7014 7012 7013 0
-7006 7001 0
-7006 -7004 0
7006 -7001 7004 0
-7007 -7005 0
-7007 -7006 0
7007 7005 7006 0
-6999 6994 0
-6999 -6997 0
6999 -6994 6997 0
-7000 -6998 0
-7000 -6999 0
7000 6998 6999 0
-6992 6987 0
-6992 -6990 0
6992 -6987 6990 0
-6993 -6991 0
-6993 -6992 0
6993 6991 6992 0
-6985 6980 0
-6985 -6983 0
6985 -6980 6983 0
-6986 -6984 0
-6986 -6985 0
6986 6984 6985 0
-6978 6973 0
-6978 -6976 0
6978 -6973 6976 0
-6979 -6977 0
-6979 -6978 0
6979 6977 6978 0
-6971 6966 0
-6971 -6969 0
6971 -6966 6969 0
-6972 -6970 0
-6972 -6971 0
6972 6970 6971 0
-6964 6959 0
-6964 -6962 0
6964 -6959 6962 0
-6965 -6963 0
-6965 -6964 0
6965 6963 6964 0
-6957 6952 0
-6957 -6955 0
6957 -6952 6955 0
-6958 -6956 0
-6958 -6957 0
6958 6956 6957 0
-6950 6945 0
-6950 -6948 0
6950 -6945 6948 0
-6951 -6949 0
-6951 -6950 0
6951 6949 6950 0
-6943 6938 0
-6943 -6941 0
6943 -6938 6941 0
-6944 -6942 0
-6944 -6943 0
6944 6942 6943 0
-6936 6931 0
-6936 -6934 0
6936 -6931 6934 0
-6937 -6935 0
-6937 -6936 0
6937 6935 6936 0
-6929 6924 0
-6929 -6927 0
6929 -6924 6927 0
-6930 -6928 0
-6930 -6929 0
6930 6928 6929 0
-6922 6917 0
-6922 -6920 0
6922 -6917 6920 0
-6923 -6921 0
-6923 -6922 0
6923 6921 6922 0
-6915 6910 0
-6915 -6913 0
6915 -6910 6913 0
-6916 -6914 0
-6916 -6915 0
6916 6914 6915 0
-6908 6903 0
-6908 -6906 0
6908 -6903 6906 0
-6909 -6907 0
-6909 -6908 0
6909 6907 6908 0
-6901 6896 0
-6901 -6899 0
6901 -6896 6899 0
-6902 -6900 0
-6902 -6901 0
6902 6900 6901 0
-6894 6889 0
-6894 -6892 0
6894 -6889 6892 0
-6895 -6893 0
-6895 -6894 0
6895 6893 6894 0
-6887 6882 0
-6887 -6885 0
6887 -6882 6885 0
-6888 -6886 0
-6888 -6887 0
6888 6886 6887 0
-6880 6875 0
-6880 -6878 0
6880 -6875 6878 0
-6881 -6879 0
-6881 -6880 0
6881 6879 6880 0
-6873 6868 0
-6873 -6871 0
6873 -6868 6871 0
-6874 -6872 0
-6874 -6873 0
6874 6872 6873 0
-6866 6861 0
-6866 -6864 0
6866 -6861 6864 0
-6867 -6865 0
-6867 -6866 0
6867 6865 6866 0
-6859 6854 0
-6859 -6857 0
6859 -6854 6857 0
-6860 -6858 0
-6860 -6859 0
6860 6858 6859 0
-6852 6847 0
-6852 -6850 0
6852 -6847 6850 0
-6853 -6851 0
-6853 -6852 0
6853 6851 6852 0
-6845 6840 0
-6845 -6843 0
6845 -6840 6843 0
-6846 -6844 0
-6846 -6845 0
6846 6844 6845 0
-6838 6833 0
-6838 -6836 0
6838 -6833 6836 0
-6839 -6837 0
-6839 -6838 0
6839 6837 6838 0
-6831 6826 0
-6831 -6829 0
6831 -6826 6829 0
-6832 -6830 0
-6832 -6831 0
6832 6830 6831 0
-6824 6819 0
-6824 -6822 0
6824 -6819 6822 0
-6825 -6823 0
-6825 -6824 0
6825 6823 6824 0
-6817 6812 0
-6817 -6815 0
6817 -6812 6815 0
-6818 -6816 0
-6818 -6817 0
6818 6816 6817 0
-6810 6805 0
-6810 -6808 0
6810 -6805 6808 0
-6811 -6809 0
-6811 -6810 0
6811 6809 6810 0
-6803 6798 0
-6803 -6801 0
6803 -6798 6801 0
-6804 -6802 0
-6804 -6803 0
6804 6802 6803 0
-6796 6791 0
-6796 -6794 0
6796 -6791 6794 0
-6797 -6795 0
-6797 -6796 0
6797 6795 6796 0
-6789 6784 0
-6789 -6787 0
6789 -6784 6787 0
-6790 -6788 0
-6790 -6789 0
6790 6788 6789 0
-6782 6777 0
-6782 -6780 0
6782 -6777 6780 0
-6783 -6781 0
-6783 -6782 0
6783 6781 6782 0
-6775 6770 0
-6775 -6773 0
6775 -6770 6773 0
-6776 -6774 0
-6776 -6775 0
6776 6774 6775 0
-6768 6763 0
-6768 -6766 0
6768 -6763 6766 0
-6769 -6767 0
-6769 -6768 0
6769 6767 6768 0
-6761 6756 0
-6761 -6759 0
6761 -6756 6759 0
-6762 -6760 0
-6762 -6761 0
6762 6760 6761 0
-6754 6749 0
-6754 -6752 0
6754 -6749 6752 0
-6755 -6753 0
-6755 -6754 0
6755 6753 6754 0
-6747 6742 0
-6747 -6745 0
6747 -6742 6745 0
-6748 -6746 0
-6748 -6747 0
6748 6746 6747 0
-6740 6735 0
-6740 -6738 0
6740 -6735 6738 0
-6741 -6739 0
-6741 -6740 0
6741 6739 6740 0
-6733 6728 0
-6733 -6731 0
6733 -6728 6731 0
-6734 -6732 0
-6734 -6733 0
6734 6732 6733 0
-6726 6721 0
-6726 -6724 0
6726 -6721 6724 0
-6727 -6725 0
-6727 -6726 0
6727 6725 6726 0
-6719 6714 0
-6719 -6717 0
6719 -6714 6717 0
-6720 -6718 0
-6720 -6719 0
6720 6718 6719 0
-6712 6707 0
-6712 -6710 0
6712 -6707 6710 0
-6713 -6711 0
-6713 -6712 0
6713 6711 6712 0
-6705 -6698 0
-6705 -6703 0
6705 6698 6703 0
-6706 -6704 0
-6706 -6705 0
6706 6704 6705 0
-6699 -4819 0
-6699 -4820 0
6699 4819 4820 0
-6700 -6698 0
-6700 -6699 0
6700 6698 6699 0
-7135 4819 0
-7135 6700 0
7135 -4819 -6700 0
-7138 6706 0
-7138 7135 0
7138 -6706 -7135 0
-7141 6713 0
-7141 7138 0
7141 -6713 -7138 0
-7144 6720 0
-7144 7141 0
7144 -6720 -7141 0
-7147 6727 0
-7147 7144 0
7147 -6727 -7144 0
-7150 6734 0
-7150 7147 0
7150 -6734 -7147 0
-7153 6741 0
-7153 7150 0
7153 -6741 -7150 0
-7156 6748 0
-7156 7153 0
7156 -6748 -7153 0
-7159 6755 0
-7159 7156 0
7159 -6755 -7156 0
-7162 6762 0
-7162 7159 0
7162 -6762 -7159 0
-7165 6769 0
-7165 7162 0
7165 -6769 -7162 0
-7168 6776 0
-7168 7165 0
7168 -6776 -7165 0
-7171 6783 0
-7171 7168 0
7171 -6783 -7168 0
-7174 6790 0
-7174 7171 0
7174 -6790 -7171 0
-7177 6797 0
-7177 7174 0
7177 -6797 -7174 0
-7180 6804 0
-7180 7177 0
7180 -6804 -7177 0
-7183 6811 0
-7183 7180 0
7183 -6811 -7180 0
-7186 6818 0
-7186 7183 0
7186 -6818 -7183 0
-7189 6825 0
-7189 7186 0
7189 -6825 -7186 0
-7192 6832 0
-7192 7189 0
7192 -6832 -7189 0
-7195 6839 0
-7195 7192 0
7195 -6839 -7192 0
-7198 6846 0
-7198 7195 0
7198 -6846 -7195 0
-7201 6853 0
-7201 7198 0
7201 -6853 -7198 0
-7204 6860 0
-7204 7201 0
7204 -6860 -7201 0
-7207 6867 0
-7207 7204 0
7207 -6867 -7204 0
-7210 6874 0
-7210 7207 0
7210 -6874 -7207 0
-7213 6881 0
-7213 7210 0
7213 -6881 -7210 0
-7216 6888 0
-7216 7213 0
7216 -6888 -7213 0
-7219 6895 0
-7219 7216 0
7219 -6895 -7216 0
-7222 6902 0
-7222 7219 0
7222 -6902 -7219 0
-7225 6909 0
-7225 7222 0
7225 -6909 -7222 0
-7228 6916 0
-7228 7225 0
7228 -6916 -7225 0
-7231 6923 0
-7231 7228 0
7231 -6923 -7228 0
-7234 6930 0
-7234 7231 0
7234 -6930 -7231 0
-7237 6937 0
-7237 7234 0
7237 -6937 -7234 0
-7240 6944 0
-7240 7237 0
7240 -6944 -7237 0
-7243 6951 0
-7243 7240 0
7243 -6951 -7240 0
-7246 6958 0
-7246 7243 0
7246 -6958 -7243 0
-7249 6965 0
-7249 7246 0
7249 -6965 -7246 0
-7252 6972 0
-7252 7249 0
7252 -6972 -7249 0
-7255 6979 0
-7255 7252 0
7255 -6979 -7252 0
-7258 6986 0
-7258 7255 0
7258 -6986 -7255 0
-7261 6993 0
-7261 7258 0
7261 -6993 -7258 0
-7264 7000 0
-7264 7261 0
7264 -7000 -7261 0
-7267 7007 0
-7267 7264 0
7267 -7007 -7264 0
-7270 7014 0
-7270 7267 0
7270 -7014 -7267 0
-7273 7021 0
-7273 7270 0
7273 -7021 -7270 0
-7276 7028 0
-7276 7273 0
7276 -7028 -7273 0
-7279 7035 0
-7279 7276 0
7279 -7035 -7276 0
-7282 7042 0
-7282 7279 0
7282 -7042 -7279 0
-7285 7049 0
-7285 7282 0
7285 -7049 -7282 0
-7288 7056 0
-7288 7285 0
7288 -7056 -7285 0
-7291 7063 0
-7291 7288 0
7291 -7063 -7288 0
-7294 7070 0
-7294 7291 0
7294 -7070 -7291 0
-7297 7077 0
-7297 7294 0
7297 -7077 -7294 0
-7300 7084 0
-7300 7297 0
7300 -7084 -7297 0
-7303 7091 0
-7303 7300 0
7303 -7091 -7300 0
-7306 7098 0
-7306 7303 0
7306 -7098 -7303 0
-7309 7105 0
-7309 7306 0
7309 -7105 -7306 0
-7312 7112 0
-7312 7309 0
7312 -7112 -7309 0
-7315 7119 0
-7315 7312 0
7315 -7119 -7312 0
-7318 7126 0
-7318 7315 0
7318 -7126 -7315 0
-7321 7133 0
-7321 7318 0
7321 -7133 -7318 0
-7322 -7133 0
-7322 -7318 0
7322 7133 7318 0
-7323 -7321 0
-7323 -7322 0
7323 7321 7322 0
-7510 6696 0
-7510 -7323 0
7510 -6696 7323 0
-7511 -6696 0
-7511 7323 0
7511 6696 -7323 0
-7512 -7510 0
-7512 -7511 0
7512 7510 7511 0
6695 -16913 0
-6695 16913 0
-7319 -7126 0
-7319 -7315 0
7319 7126 7315 0
-7320 -7318 0
-7320 -7319 0
7320 7318 7319 0
-7507 6695 0
-7507 -7320 0
7507 -6695 7320 0
-7508 -6695 0
-7508 7320 0
7508 6695 -7320 0
-7509 -7507 0
-7509 -7508 0
7509 7507 7508 0
6694 -16912 0
-6694 16912 0
-7316 -7119 0
-7316 -7312 0
7316 7119 7312 0
-7317 -7315 0
-7317 -7316 0
7317 7315 7316 0
-7504 6694 0
-7504 -7317 0
7504 -6694 7317 0
-7505 -6694 0
-7505 7317 0
7505 6694 -7317 0
-7506 -7504 0
-7506 -7505 0
7506 7504 7505 0
6693 -16911 0
-6693 16911 0
-7313 -7112 0
-7313 -7309 0
7313 7112 7309 0
-7314 -7312 0
-7314 -7313 0
7314 7312 7313 0
-7501 6693 0
-7501 -7314 0
7501 -6693 7314 0
-7502 -6693 0
-7502 7314 0
7502 6693 -7314 0
-7503 -7501 0
-7503 -7502 0
7503 7501 7502 0
6692 -16910 0
-6692 16910 0
-7310 -7105 0
-7310 -7306 0
7310 7105 7306 0
-7311 -7309 0
-7311 -7310 0
7311 7309 7310 0
-7498 6692 0
-7498 -7311 0
7498 -6692 7311 0
-7499 -6692 0
-7499 7311 0
7499 6692 -7311 0
-7500 -7498 0
-7500 -7499 0
7500 7498 7499 0
6691 -16909 0
-6691 16909 0
-7307 -7098 0
-7307 -7303 0
7307 7098 7303 0
-7308 -7306 0
-7308 -7307 0
7308 7306 7307 0
-7495 6691 0
-7495 -7308 0
7495 -6691 7308 0
-7496 -6691 0
-7496 7308 0
7496 6691 -7308 0
-7497 -7495 0
-7497 -7496 0
7497 7495 7496 0
6690 -16908 0
-6690 16908 0
-7304 -7091 0
-7304 -7300 0
7304 7091 7300 0
-7305 -7303 0
-7305 -7304 0
7305 7303 7304 0
-7492 6690 0
-7492 -7305 0
7492 -6690 7305 0
-7493 -6690 0
-7493 7305 0
7493 6690 -7305 0
-7494 -7492 0
-7494 -7493 0
7494 7492 7493 0
6689 -16907 0
-6689 16907 0
-7301 -7084 0
-7301 -7297 0
7301 7084 7297 0
-7302 -7300 0
-7302 -7301 0
7302 7300 7301 0
-7489 6689 0
-7489 -7302 0
7489 -6689 7302 0
-7490 -6689 0
-7490 7302 0
7490 6689 -7302 0
-7491 -7489 0
-7491 -7490 0
7491 7489 7490 0
6688 -16906 0
-6688 16906 0
-7298 -7077 0
-7298 -7294 0
7298 7077 7294 0
-7299 -7297 0
-7299 -7298 0
7299 7297 7298 0
-7486 6688 0
-7486 -7299 0
7486 -6688 7299 0
-7487 -6688 0
-7487 7299 0
7487 6688 -7299 0
-7488 -7486 0
-7488 -7487 0
7488 7486 7487 0
6687 -16905 0
-6687 16905 0
-7295 -7070 0
-7295 -7291 0
7295 7070 7291 0
-7296 -7294 0
-7296 -7295 0
7296 7294 7295 0
-7483 6687 0
-7483 -7296 0
7483 -6687 7296 0
-7484 -6687 0
-7484 7296 0
7484 6687 -7296 0
-7485 -7483 0
-7485 -7484 0
7485 7483 7484 0
6686 -16904 0
-6686 16904 0
-7292 -7063 0
-7292 -7288 0
7292 7063 7288 0
-7293 -7291 0
-7293 -7292 0
7293 7291 7292 0
-7480 6686 0
-7480 -7293 0
7480 -6686 7293 0
-7481 -6686 0
-7481 7293 0
7481 6686 -7293 0
-7482 -7480 0
-7482 -7481 0
7482 7480 7481 0
6685 -16903 0
-6685 16903 0
-7289 -7056 0
-7289 -7285 0
7289 7056 7285 0
-7290 -7288 0
-7290 -7289 0
7290 7288 7289 0
-7477 6685 0
-7477 -7290 0
7477 -6685 7290 0
-7478 -6685 0
-7478 7290 0
7478 6685 -7290 0
-7479 -7477 0
-7479 -7478 0
7479 7477 7478 0
6684 -16902 0
-6684 16902 0
-7286 -7049 0
-7286 -7282 0
7286 7049 7282 0
-7287 -7285 0
-7287 -7286 0
7287 7285 7286 0
-7474 6684 0
-7474 -7287 0
7474 -6684 7287 0
-7475 -6684 0
-7475 7287 0
7475 6684 -7287 0
-7476 -7474 0
-7476 -7475 0
7476 7474 7475 0
6683 -16901 0
-6683 16901 0
-7283 -7042 0
-7283 -7279 0
7283 7042 7279 0
-7284 -7282 0
-7284 -7283 0
7284 7282 7283 0
-7471 6683 0
-7471 -7284 0
7471 -6683 7284 0
-7472 -6683 0
-7472 7284 0
7472 6683 -7284 0
-7473 -7471 0
-7473 -7472 0
7473 7471 7472 0
6682 -16900 0
-6682 16900 0
-7280 -7035 0
-7280 -7276 0
7280 7035 7276 0
-7281 -7279 0
-7281 -7280 0
7281 7279 7280 0
-7468 6682 0
-7468 -7281 0
7468 -6682 7281 0
-7469 -6682 0
-7469 7281 0
7469 6682 -7281 0
-7470 -7468 0
-7470 -7469 0
7470 7468 7469 0
6681 -16899 0
-6681 16899 0
-7277 -7028 0
-7277 -7273 0
7277 7028 7273 0
-7278 -7276 0
-7278 -7277 0
7278 7276 7277 0
-7465 6681 0
-7465 -7278 0
7465 -6681 7278 0
-7466 -6681 0
-7466 7278 0
7466 6681 -7278 0
-7467 -7465 0
-7467 -7466 0
7467 7465 7466 0
6680 -16898 0
-6680 16898 0
-7274 -7021 0
-7274 -7270 0
7274 7021 7270 0
-7275 -7273 0
-7275 -7274 0
7275 7273 7274 0
-7462 6680 0
-7462 -7275 0
7462 -6680 7275 0
-7463 -6680 0
-7463 7275 0
7463 6680 -7275 0
-7464 -7462 0
-7464 -7463 0
7464 7462 7463 0
6679 -16897 0
-6679 16897 0
-7271 -7014 0
-7271 -7267 0
7271 7014 7267 0
-7272 -7270 0
-7272 -7271 0
7272 7270 7271 0
-7459 6679 0
-7459 -7272 0
7459 -6679 7272 0
-7460 -6679 0
-7460 7272 0
7460 6679 -7272 0
-7461 -7459 0
-7461 -7460 0
7461 7459 7460 0
6678 -16896 0
-6678 16896 0
-7268 -7007 0
-7268 -7264 0
7268 7007 7264 0
-7269 -7267 0
-7269 -7268 0
7269 7267 7268 0
-7456 6678 0
-7456 -7269 0
7456 -6678 7269 0
-7457 -6678 0
-7457 7269 0
7457 6678 -7269 0
-7458 -7456 0
-7458 -7457 0
7458 7456 7457 0
6677 -16895 0
-6677 16895 0
-7265 -7000 0
-7265 -7261 0
7265 7000 7261 0
-7266 -7264 0
-7266 -7265 0
7266 7264 7265 0
-7453 6677 0
-7453 -7266 0
7453 -6677 7266 0
-7454 -6677 0
-7454 7266 0
7454 6677 -7266 0
-7455 -7453 0
-7455 -7454 0
7455 7453 7454 0
6676 -16894 0
-6676 16894 0
-7262 -6993 0
-7262 -7258 0
7262 6993 7258 0
-7263 -7261 0
-7263 -7262 0
7263 7261 7262 0
-7450 6676 0
-7450 -7263 0
7450 -6676 7263 0
-7451 -6676 0
-7451 7263 0
7451 6676 -7263 0
-7452 -7450 0
-7452 -7451 0
7452 7450 7451 0
6675 -16893 0
-6675 16893 0
-7259 -6986 0
-7259 -7255 0
7259 6986 7255 0
-7260 -7258 0
-7260 -7259 0
7260 7258 7259 0
-7447 6675 0
-7447 -7260 0
7447 -6675 7260 0
-7448 -6675 0
-7448 7260 0
7448 6675 -7260 0
-7449 -7447 0
-7449 -7448 0
7449 7447 7448 0
6674 -16892 0
-6674 16892 0
-7256 -6979 0
-7256 -7252 0
7256 6979 7252 0
-7257 -7255 0
-7257 -7256 0
7257 7255 7256 0
-7444 6674 0
-7444 -7257 0
7444 -6674 7257 0
-7445 -6674 0
-7445 7257 0
7445 6674 -7257 0
-7446 -7444 0
-7446 -7445 0
7446 7444 7445 0
6673 -16891 0
-6673 16891 0
-7253 -6972 0
-7253 -7249 0
7253 6972 7249 0
-7254 -7252 0
-7254 -7253 0
7254 7252 7253 0
-7441 6673 0
-7441 -7254 0
7441 -6673 7254 0
-7442 -6673 0
-7442 7254 0
7442 6673 -7254 0
-7443 -7441 0
-7443 -7442 0
7443 7441 7442 0
6672 -16890 0
-6672 16890 0
-7250 -6965 0
-7250 -7246 0
7250 6965 7246 0
-7251 -7249 0
-7251 -7250 0
7251 7249 7250 0
-7438 6672 0
-7438 -7251 0
7438 -6672 7251 0
-7439 -6672 0
-7439 7251 0
7439 6672 -7251 0
-7440 -7438 0
-7440 -7439 0
7440 7438 7439 0
6671 -16889 0
-6671 16889 0
-7247 -6958 0
-7247 -7243 0
7247 6958 7243 0
-7248 -7246 0
-7248 -7247 0
7248 7246 7247 0
-7435 6671 0
-7435 -7248 0
7435 -6671 7248 0
-7436 -6671 0
-7436 7248 0
7436 6671 -7248 0
-7437 -7435 0
-7437 -7436 0
7437 7435 7436 0
6670 -16888 0
-6670 16888 0
-7244 -6951 0
-7244 -7240 0
7244 6951 7240 0
-7245 -7243 0
-7245 -7244 0
7245 7243 7244 0
-7432 6670 0
-7432 -7245 0
7432 -6670 7245 0
-7433 -6670 0
-7433 7245 0
7433 6670 -7245 0
-7434 -7432 0
-7434 -7433 0
7434 7432 7433 0
6669 -16887 0
-6669 16887 0
-7241 -6944 0
-7241 -7237 0
7241 6944 7237 0
-7242 -7240 0
-7242 -7241 0
7242 7240 7241 0
-7429 6669 0
-7429 -7242 0
7429 -6669 7242 0
-7430 -6669 0
-7430 7242 0
7430 6669 -7242 0
-7431 -7429 0
-7431 -7430 0
7431 7429 7430 0
6668 -16886 0
-6668 16886 0
-7238 -6937 0
-7238 -7234 0
7238 6937 7234 0
-7239 -7237 0
-7239 -7238 0
7239 7237 7238 0
-7426 6668 0
-7426 -7239 0
7426 -6668 7239 0
-7427 -6668 0
-7427 7239 0
7427 6668 -7239 0
-7428 -7426 0
-7428 -7427 0
7428 7426 7427 0
6667 -16885 0
-6667 16885 0
-7235 -6930 0
-7235 -7231 0
7235 6930 7231 0
-7236 -7234 0
-7236 -7235 0
7236 7234 7235 0
-7423 6667 0
-7423 -7236 0
7423 -6667 7236 0
-7424 -6667 0
-7424 7236 0
7424 6667 -7236 0
-7425 -7423 0
-7425 -7424 0
7425 7423 7424 0
6666 -16884 0
-6666 16884 0
-7232 -6923 0
-7232 -7228 0
7232 6923 7228 0
-7233 -7231 0
-7233 -7232 0
7233 7231 7232 0
-7420 6666 0
-7420 -7233 0
7420 -6666 7233 0
-7421 -6666 0
-7421 7233 0
7421 6666 -7233 0
-7422 -7420 0
-7422 -7421 0
7422 7420 7421 0
6665 -16883 0
-6665 16883 0
-7229 -6916 0
-7229 -7225 0
7229 6916 7225 0
-7230 -7228 0
-7230 -7229 0
7230 7228 7229 0
-7417 6665 0
-7417 -7230 0
7417 -6665 7230 0
-7418 -6665 0
-7418 7230 0
7418 6665 -7230 0
-7419 -7417 0
-7419 -7418 0
7419 7417 7418 0
6664 -16882 0
-6664 16882 0
-7226 -6909 0
-7226 -7222 0
7226 6909 7222 0
-7227 -7225 0
-7227 -7226 0
7227 7225 7226 0
-7414 6664 0
-7414 -7227 0
7414 -6664 7227 0
-7415 -6664 0
-7415 7227 0
7415 6664 -7227 0
-7416 -7414 0
-7416 -7415 0
7416 7414 7415 0
6663 -16881 0
-6663 16881 0
-7223 -6902 0
-7223 -7219 0
7223 6902 7219 0
-7224 -7222 0
-7224 -7223 0
7224 7222 7223 0
-7411 6663 0
-7411 -7224 0
7411 -6663 7224 0
-7412 -6663 0
-7412 7224 0
7412 6663 -7224 0
-7413 -7411 0
-7413 -7412 0
7413 7411 7412 0
6662 -16880 0
-6662 16880 0
-7220 -6895 0
-7220 -7216 0
7220 6895 7216 0
-7221 -7219 0
-7221 -7220 0
7221 7219 7220 0
-7408 6662 0
-7408 -7221 0
7408 -6662 7221 0
-7409 -6662 0
-7409 7221 0
7409 6662 -7221 0
-7410 -7408 0
-7410 -7409 0
7410 7408 7409 0
6661 -16879 0
-6661 16879 0
-7217 -6888 0
-7217 -7213 0
7217 6888 7213 0
-7218 -7216 0
-7218 -7217 0
7218 7216 7217 0
-7405 6661 0
-7405 -7218 0
7405 -6661 7218 0
-7406 -6661 0
-7406 7218 0
7406 6661 -7218 0
-7407 -7405 0
-7407 -7406 0
7407 7405 7406 0
6660 -16878 0
-6660 16878 0
-7214 -6881 0
-7214 -7210 0
7214 6881 7210 0
-7215 -7213 0
-7215 -7214 0
7215 7213 7214 0
-7402 6660 0
-7402 -7215 0
7402 -6660 7215 0
-7403 -6660 0
-7403 7215 0
7403 6660 -7215 0
-7404 -7402 0
-7404 -7403 0
7404 7402 7403 0
6659 -16877 0
-6659 16877 0
-7211 -6874 0
-7211 -7207 0
7211 6874 7207 0
-7212 -7210 0
-7212 -7211 0
7212 7210 7211 0
-7399 6659 0
-7399 -7212 0
7399 -6659 7212 0
-7400 -6659 0
-7400 7212 0
7400 6659 -7212 0
-7401 -7399 0
-7401 -7400 0
7401 7399 7400 0
6658 -16876 0
-6658 16876 0
-7208 -6867 0
-7208 -7204 0
7208 6867 7204 0
-7209 -7207 0
-7209 -7208 0
7209 7207 7208 0
-7396 6658 0
-7396 -7209 0
7396 -6658 7209 0
-7397 -6658 0
-7397 7209 0
7397 6658 -7209 0
-7398 -7396 0
-7398 -7397 0
7398 7396 7397 0
6657 -16875 0
-6657 16875 0
-7205 -6860 0
-7205 -7201 0
7205 6860 7201 0
-7206 -7204 0
-7206 -7205 0
7206 7204 7205 0
-7393 6657 0
-7393 -7206 0
7393 -6657 7206 0
-7394 -6657 0
-7394 7206 0
7394 6657 -7206 0
-7395 -7393 0
-7395 -7394 0
7395 7393 7394 0
6656 -16874 0
-6656 16874 0
-7202 -6853 0
-7202 -7198 0
7202 6853 7198 0
-7203 -7201 0
-7203 -7202 0
7203 7201 7202 0
-7390 6656 0
-7390 -7203 0
7390 -6656 7203 0
-7391 -6656 0
-7391 7203 0
7391 6656 -7203 0
-7392 -7390 0
-7392 -7391 0
7392 7390 7391 0
6655 -16873 0
-6655 16873 0
-7199 -6846 0
-7199 -7195 0
7199 6846 7195 0
-7200 -7198 0
-7200 -7199 0
7200 7198 7199 0
-7387 6655 0
-7387 -7200 0
7387 -6655 7200 0
-7388 -6655 0
-7388 7200 0
7388 6655 -7200 0
-7389 -7387 0
-7389 -7388 0
7389 7387 7388 0
6654 -16872 0
-6654 16872 0
-7196 -6839 0
-7196 -7192 0
7196 6839 7192 0
-7197 -7195 0
-7197 -7196 0
7197 7195 7196 0
-7384 6654 0
-7384 -7197 0
7384 -6654 7197 0
-7385 -6654 0
-7385 7197 0
7385 6654 -7197 0
-7386 -7384 0
-7386 -7385 0
7386 7384 7385 0
6653 -16871 0
-6653 16871 0
-7193 -6832 0
-7193 -7189 0
7193 6832 7189 0
-7194 -7192 0
-7194 -7193 0
7194 7192 7193 0
-7381 6653 0
-7381 -7194 0
7381 -6653 7194 0
-7382 -6653 0
-7382 7194 0
7382 6653 -7194 0
-7383 -7381 0
-7383 -7382 0
7383 7381 7382 0
6652 -16870 0
-6652 16870 0
-7190 -6825 0
-7190 -7186 0
7190 6825 7186 0
-7191 -7189 0
-7191 -7190 0
7191 7189 7190 0
-7378 6652 0
-7378 -7191 0
7378 -6652 7191 0
-7379 -6652 0
-7379 7191 0
7379 6652 -7191 0
-7380 -7378 0
-7380 -7379 0
7380 7378 7379 0
6651 -16869 0
-6651 16869 0
-7187 -6818 0
-7187 -7183 0
7187 6818 7183 0
-7188 -7186 0
-7188 -7187 0
7188 7186 7187 0
-7375 6651 0
-7375 -7188 0
7375 -6651 7188 0
-7376 -6651 0
-7376 7188 0
7376 6651 -7188 0
-7377 -7375 0
-7377 -7376 0
7377 7375 7376 0
6650 -16868 0
-6650 16868 0
-7184 -6811 0
-7184 -7180 0
7184 6811 7180 0
-7185 -7183 0
-7185 -7184 0
7185 7183 7184 0
-7372 6650 0
-7372 -7185 0
7372 -6650 7185 0
-7373 -6650 0
-7373 7185 0
7373 6650 -7185 0
-7374 -7372 0
-7374 -7373 0
7374 7372 7373 0
6649 -16867 0
-6649 16867 0
-7181 -6804 0
-7181 -7177 0
7181 6804 7177 0
-7182 -7180 0
-7182 -7181 0
7182 7180 7181 0
-7369 6649 0
-7369 -7182 0
7369 -6649 7182 0
-7370 -6649 0
-7370 7182 0
7370 6649 -7182 0
-7371 -7369 0
-7371 -7370 0
7371 7369 7370 0
6648 -16866 0
-6648 16866 0
-7178 -6797 0
-7178 -7174 0
7178 6797 7174 0
-7179 -7177 0
-7179 -7178 0
7179 7177 7178 0
-7366 6648 0
-7366 -7179 0
7366 -6648 7179 0
-7367 -6648 0
-7367 7179 0
7367 6648 -7179 0
-7368 -7366 0
-7368 -7367 0
7368 7366 7367 0
6647 -16865 0
-6647 16865 0
-7175 -6790 0
-7175 -7171 0
7175 6790 7171 0
-7176 -7174 0
-7176 -7175 0
7176 7174 7175 0
-7363 6647 0
-7363 -7176 0
7363 -6647 7176 0
-7364 -6647 0
-7364 7176 0
7364 6647 -7176 0
-7365 -7363 0
-7365 -7364 0
7365 7363 7364 0
6646 -16864 0
-6646 16864 0
-7172 -6783 0
-7172 -7168 0
7172 6783 7168 0
-7173 -7171 0
-7173 -7172 0
7173 7171 7172 0
-7360 6646 0
-7360 -7173 0
7360 -6646 7173 0
-7361 -6646 0
-7361 7173 0
7361 6646 -7173 0
-7362 -7360 0
-7362 -7361 0
7362 7360 7361 0
6645 -16863 0
-6645 16863 0
-7169 -6776 0
-7169 -7165 0
7169 6776 7165 0
-7170 -7168 0
-7170 -7169 0
7170 7168 7169 0
-7357 6645 0
-7357 -7170 0
7357 -6645 7170 0
-7358 -6645 0
-7358 7170 0
7358 6645 -7170 0
-7359 -7357 0
-7359 -7358 0
7359 7357 7358 0
6644 -16862 0
-6644 16862 0
-7166 -6769 0
-7166 -7162 0
7166 6769 7162 0
-7167 -7165 0
-7167 -7166 0
7167 7165 7166 0
-7354 6644 0
-7354 -7167 0
7354 -6644 7167 0
-7355 -6644 0
-7355 7167 0
7355 6644 -7167 0
-7356 -7354 0
-7356 -7355 0
7356 7354 7355 0
6643 -16861 0
-6643 16861 0
-7163 -6762 0
-7163 -7159 0
7163 6762 7159 0
-7164 -7162 0
-7164 -7163 0
7164 7162 7163 0
-7351 6643 0
-7351 -7164 0
7351 -6643 7164 0
-7352 -6643 0
-7352 7164 0
7352 6643 -7164 0
-7353 -7351 0
-7353 -7352 0
7353 7351 7352 0
6642 -16860 0
-6642 16860 0
-7160 -6755 0
-7160 -7156 0
7160 6755 7156 0
-7161 -7159 0
-7161 -7160 0
7161 7159 7160 0
-7348 6642 0
-7348 -7161 0
7348 -6642 7161 0
-7349 -6642 0
-7349 7161 0
7349 6642 -7161 0
-7350 -7348 0
-7350 -7349 0
7350 7348 7349 0
6641 -16859 0
-6641 16859 0
-7157 -6748 0
-7157 -7153 0
7157 6748 7153 0
-7158 -7156 0
-7158 -7157 0
7158 7156 7157 0
-7345 6641 0
-7345 -7158 0
7345 -6641 7158 0
-7346 -6641 0
-7346 7158 0
7346 6641 -7158 0
-7347 -7345 0
-7347 -7346 0
7347 7345 7346 0
6640 -16858 0
-6640 16858 0
-7154 -6741 0
-7154 -7150 0
7154 6741 7150 0
-7155 -7153 0
-7155 -7154 0
7155 7153 7154 0
-7342 6640 0
-7342 -7155 0
7342 -6640 7155 0
-7343 -6640 0
-7343 7155 0
7343 6640 -7155 0
-7344 -7342 0
-7344 -7343 0
7344 7342 7343 0
6639 -16857 0
-6639 16857 0
-7151 -6734 0
-7151 -7147 0
7151 6734 7147 0
-7152 -7150 0
-7152 -7151 0
7152 7150 7151 0
-7339 6639 0
-7339 -7152 0
7339 -6639 7152 0
-7340 -6639 0
-7340 7152 0
7340 6639 -7152 0
-7341 -7339 0
-7341 -7340 0
7341 7339 7340 0
6638 -16856 0
-6638 16856 0
-7148 -6727 0
-7148 -7144 0
7148 6727 7144 0
-7149 -7147 0
-7149 -7148 0
7149 7147 7148 0
-7336 6638 0
-7336 -7149 0
7336 -6638 7149 0
-7337 -6638 0
-7337 7149 0
7337 6638 -7149 0
-7338 -7336 0
-7338 -7337 0
7338 7336 7337 0
6637 -16855 0
-6637 16855 0
-7145 -6720 0
-7145 -7141 0
7145 6720 7141 0
-7146 -7144 0
-7146 -7145 0
7146 7144 7145 0
-7333 6637 0
-7333 -7146 0
7333 -6637 7146 0
-7334 -6637 0
-7334 7146 0
7334 6637 -7146 0
-7335 -7333 0
-7335 -7334 0
7335 7333 7334 0
6636 -16854 0
-6636 16854 0
-7142 -6713 0
-7142 -7138 0
7142 6713 7138 0
-7143 -7141 0
-7143 -7142 0
7143 7141 7142 0
-7330 6636 0
-7330 -7143 0
7330 -6636 7143 0
-7331 -6636 0
-7331 7143 0
7331 6636 -7143 0
-7332 -7330 0
-7332 -7331 0
7332 7330 7331 0
6634 -16852 0
-6634 16852 0
-7136 -4819 0
-7136 -6700 0
7136 4819 6700 0
-7137 -7135 0
-7137 -7136 0
7137 7135 7136 0
-7324 6634 0
-7324 -7137 0
7324 -6634 7137 0
-7325 -6634 0
-7325 7137 0
7325 6634 -7137 0
-7326 -7324 0
-7326 -7325 0
7326 7324 7325 0
6635 -16853 0
-6635 16853 0
-7139 -6706 0
-7139 -7135 0
7139 6706 7135 0
-7140 -7138 0
-7140 -7139 0
7140 7138 7139 0
-7327 6635 0
-7327 -7140 0
7327 -6635 7140 0
-7328 -6635 0
-7328 7140 0
7328 6635 -7140 0
-7329 -7327 0
-7329 -7328 0
7329 7327 7328 0
-7513 7326 0
-7513 7329 0
7513 -7326 -7329 0
-7514 7332 0
-7514 7513 0
7514 -7332 -7513 0
-7515 7335 0
-7515 7514 0
7515 -7335 -7514 0
-7516 7338 0
-7516 7515 0
7516 -7338 -7515 0
-7517 7341 0
-7517 7516 0
7517 -7341 -7516 0
-7518 7344 0
-7518 7517 0
7518 -7344 -7517 0
-7519 7347 0
-7519 7518 0
7519 -7347 -7518 0
-7520 7350 0
-7520 7519 0
7520 -7350 -7519 0
-7521 7353 0
-7521 7520 0
7521 -7353 -7520 0
-7522 7356 0
-7522 7521 0
7522 -7356 -7521 0
-7523 7359 0
-7523 7522 0
7523 -7359 -7522 0
-7524 7362 0
-7524 7523 0
7524 -7362 -7523 0
-7525 7365 0
-7525 7524 0
7525 -7365 -7524 0
-7526 7368 0
-7526 7525 0
7526 -7368 -7525 0
-7527 7371 0
-7527 7526 0
7527 -7371 -7526 0
-7528 7374 0
-7528 7527 0
7528 -7374 -7527 0
-7529 7377 0
-7529 7528 0
7529 -7377 -7528 0
-7530 7380 0
-7530 7529 0
7530 -7380 -7529 0
-7531 7383 0
-7531 7530 0
7531 -7383 -7530 0
-7532 7386 0
-7532 7531 0
7532 -7386 -7531 0
-7533 7389 0
-7533 7532 0
7533 -7389 -7532 0
-7534 7392 0
-7534 7533 0
7534 -7392 -7533 0
-7535 7395 0
-7535 7534 0
7535 -7395 -7534 0
-7536 7398 0
-7536 7535 0
7536 -7398 -7535 0
-7537 7401 0
-7537 7536 0
7537 -7401 -7536 0
-7538 7404 0
-7538 7537 0
7538 -7404 -7537 0
-7539 7407 0
-7539 7538 0
7539 -7407 -7538 0
-7540 7410 0
-7540 7539 0
7540 -7410 -7539 0
-7541 7413 0
-7541 7540 0
7541 -7413 -7540 0
-7542 7416 0
-7542 7541 0
7542 -7416 -7541 0
-7543 7419 0
-7543 7542 0
7543 -7419 -7542 0
-7544 7422 0
-7544 7543 0
7544 -7422 -7543 0
-7545 7425 0
-7545 7544 0
7545 -7425 -7544 0
-7546 7428 0
-7546 7545 0
7546 -7428 -7545 0
-7547 7431 0
-7547 7546 0
7547 -7431 -7546 0
-7548 7434 0
-7548 7547 0
7548 -7434 -7547 0
-7549 7437 0
-7549 7548 0
7549 -7437 -7548 0
-7550 7440 0
-7550 7549 0
7550 -7440 -7549 0
-7551 7443 0
-7551 7550 0
7551 -7443 -7550 0
-7552 7446 0
-7552 7551 0
7552 -7446 -7551 0
-7553 7449 0
-7553 7552 0
7553 -7449 -7552 0
-7554 7452 0
-7554 7553 0
7554 -7452 -7553 0
-7555 7455 0
-7555 7554 0
7555 -7455 -7554 0
-7556 7458 0
-7556 7555 0
7556 -7458 -7555 0
-7557 7461 0
-7557 7556 0
7557 -7461 -7556 0
-7558 7464 0
-7558 7557 0
7558 -7464 -7557 0
-7559 7467 0
-7559 7558 0
7559 -7467 -7558 0
-7560 7470 0
-7560 7559 0
7560 -7470 -7559 0
-7561 7473 0
-7561 7560 0
7561 -7473 -7560 0
-7562 7476 0
-7562 7561 0
7562 -7476 -7561 0
-7563 7479 0
-7563 7562 0
7563 -7479 -7562 0
-7564 7482 0
-7564 7563 0
7564 -7482 -7563 0
-7565 7485 0
-7565 7564 0
7565 -7485 -7564 0
-7566 7488 0
-7566 7565 0
7566 -7488 -7565 0
-7567 7491 0
-7567 7566 0
7567 -7491 -7566 0
-7568 7494 0
-7568 7567 0
7568 -7494 -7567 0
-7569 7497 0
-7569 7568 0
7569 -7497 -7568 0
-7570 7500 0
-7570 7569 0
7570 -7500 -7569 0
-7571 7503 0
-7571 7570 0
7571 -7503 -7570 0
-7572 7506 0
-7572 7571 0
7572 -7506 -7571 0
-7573 7509 0
-7573 7572 0
7573 -7509 -7572 0
-7574 7512 0
-7574 7573 0
7574 -7512 -7573 0
-7575 -6697 0
-7575 7574 0
7575 6697 -7574 0
-7576 6028 0
-7576 -7575 0
7576 -6028 7575 0
-7577 6633 0
-7577 -7576 0
7577 -6633 7576 0
-7764 -6133 0
-7764 6696 0
7764 6133 -6696 0
-7765 6133 0
-7765 -6696 0
7765 -6133 6696 0
-7766 -7764 0
-7766 -7765 0
7766 7764 7765 0
-7761 -6132 0
-7761 6695 0
7761 6132 -6695 0
-7762 6132 0
-7762 -6695 0
7762 -6132 6695 0
-7763 -7761 0
-7763 -7762 0
7763 7761 7762 0
-7758 -6131 0
-7758 6694 0
7758 6131 -6694 0
-7759 6131 0
-7759 -6694 0
7759 -6131 6694 0
-7760 -7758 0
-7760 -7759 0
7760 7758 7759 0
-7755 -6130 0
-7755 6693 0
7755 6130 -6693 0
-7756 6130 0
-7756 -6693 0
7756 -6130 6693 0
-7757 -7755 0
-7757 -7756 0
7757 7755 7756 0
-7752 -6129 0
-7752 6692 0
7752 6129 -6692 0
-7753 6129 0
-7753 -6692 0
7753 -6129 6692 0
-7754 -7752 0
-7754 -7753 0
7754 7752 7753 0
-7749 -6128 0
-7749 6691 0
7749 6128 -6691 0
-7750 6128 0
-7750 -6691 0
7750 -6128 6691 0
-7751 -7749 0
-7751 -7750 0
7751 7749 7750 0
-7746 -6127 0
-7746 6690 0
7746 6127 -6690 0
-7747 6127 0
-7747 -6690 0
7747 -6127 6690 0
-7748 -7746 0
-7748 -7747 0
7748 7746 7747 0
-7743 -6126 0
-7743 6689 0
7743 6126 -6689 0
-7744 6126 0
-7744 -6689 0
7744 -6126 6689 0
-7745 -7743 0
-7745 -7744 0
7745 7743 7744 0
-7740 -6125 0
-7740 6688 0
7740 6125 -6688 0
-7741 6125 0
-7741 -6688 0
7741 -6125 6688 0
-7742 -7740 0
-7742 -7741 0
7742 7740 7741 0
-7737 -6124 0
-7737 6687 0
7737 6124 -6687 0
-7738 6124 0
-7738 -6687 0
7738 -6124 6687 0
-7739 -7737 0
-7739 -7738 0
7739 7737 7738 0
-7734 -6123 0
-7734 6686 0
7734 6123 -6686 0
-7735 6123 0
-7735 -6686 0
7735 -6123 6686 0
-7736 -7734 0
-7736 -7735 0
7736 7734 7735 0
-7731 -6122 0
-7731 6685 0
7731 6122 -6685 0
-7732 6122 0
-7732 -6685 0
7732 -6122 6685 0
-7733 -7731 0
-7733 -7732 0
7733 7731 7732 0
-7728 -6121 0
-7728 6684 0
7728 6121 -6684 0
-7729 6121 0
-7729 -6684 0
7729 -6121 6684 0
-7730 -7728 0
-7730 -7729 0
7730 7728 7729 0
-7725 -6120 0
-7725 6683 0
7725 6120 -6683 0
-7726 6120 0
-7726 -6683 0
7726 -6120 6683 0
-7727 -7725 0
-7727 -7726 0
7727 7725 7726 0
-7722 -6119 0
-7722 6682 0
7722 6119 -6682 0
-7723 6119 0
-7723 -6682 0
7723 -6119 6682 0
-7724 -7722 0
-7724 -7723 0
7724 7722 7723 0
-7719 -6118 0
-7719 6681 0
7719 6118 -6681 0
-7720 6118 0
-7720 -6681 0
7720 -6118 6681 0
-7721 -7719 0
-7721 -7720 0
7721 7719 7720 0
-7716 -6117 0
-7716 6680 0
7716 6117 -6680 0
-7717 6117 0
-7717 -6680 0
7717 -6117 6680 0
-7718 -7716 0
-7718 -7717 0
7718 7716 7717 0
-7713 -6116 0
-7713 6679 0
7713 6116 -6679 0
-7714 6116 0
-7714 -6679 0
7714 -6116 6679 0
-7715 -7713 0
-7715 -7714 0
7715 7713 7714 0
-7710 -6115 0
-7710 6678 0
7710 6115 -6678 0
-7711 6115 0
-7711 -6678 0
7711 -6115 6678 0
-7712 -7710 0
-7712 -7711 0
7712 7710 7711 0
-7707 -6114 0
-7707 6677 0
7707 6114 -6677 0
-7708 6114 0
-7708 -6677 0
7708 -6114 6677 0
-7709 -7707 0
-7709 -7708 0
7709 7707 7708 0
-7704 -6113 0
-7704 6676 0
7704 6113 -6676 0
-7705 6113 0
-7705 -6676 0
7705 -6113 6676 0
-7706 -7704 0
-7706 -7705 0
7706 7704 7705 0
-7701 -6112 0
-7701 6675 0
7701 6112 -6675 0
-7702 6112 0
-7702 -6675 0
7702 -6112 6675 0
-7703 -7701 0
-7703 -7702 0
7703 7701 7702 0
-7698 -6111 0
-7698 6674 0
7698 6111 -6674 0
-7699 6111 0
-7699 -6674 0
7699 -6111 6674 0
-7700 -7698 0
-7700 -7699 0
7700 7698 7699 0
-7695 -6110 0
-7695 6673 0
7695 6110 -6673 0
-7696 6110 0
-7696 -6673 0
7696 -6110 6673 0
-7697 -7695 0
-7697 -7696 0
7697 7695 7696 0
-7692 -6109 0
-7692 6672 0
7692 6109 -6672 0
-7693 6109 0
-7693 -6672 0
7693 -6109 6672 0
-7694 -7692 0
-7694 -7693 0
7694 7692 7693 0
-7689 -6108 0
-7689 6671 0
7689 6108 -6671 0
-7690 6108 0
-7690 -6671 0
7690 -6108 6671 0
-7691 -7689 0
-7691 -7690 0
7691 7689 7690 0
-7686 -6107 0
-7686 6670 0
7686 6107 -6670 0
-7687 6107 0
-7687 -6670 0
7687 -6107 6670 0
-7688 -7686 0
-7688 -7687 0
7688 7686 7687 0
-7683 -6106 0
-7683 6669 0
7683 6106 -6669 0
-7684 6106 0
-7684 -6669 0
7684 -6106 6669 0
-7685 -7683 0
-7685 -7684 0
7685 7683 7684 0
-7680 -6105 0
-7680 6668 0
7680 6105 -6668 0
-7681 6105 0
-7681 -6668 0
7681 -6105 6668 0
-7682 -7680 0
-7682 -7681 0
7682 7680 7681 0
-7677 -6104 0
-7677 6667 0
7677 6104 -6667 0
-7678 6104 0
-7678 -6667 0
7678 -6104 6667 0
-7679 -7677 0
-7679 -7678 0
7679 7677 7678 0
-7674 -6103 0
-7674 6666 0
7674 6103 -6666 0
-7675 6103 0
-7675 -6666 0
7675 -6103 6666 0
-7676 -7674 0
-7676 -7675 0
7676 7674 7675 0
-7671 -6102 0
-7671 6665 0
7671 6102 -6665 0
-7672 6102 0
-7672 -6665 0
7672 -6102 6665 0
-7673 -7671 0
-7673 -7672 0
7673 7671 7672 0
-7668 -6101 0
-7668 6664 0
7668 6101 -6664 0
-7669 6101 0
-7669 -6664 0
7669 -6101 6664 0
-7670 -7668 0
-7670 -7669 0
7670 7668 7669 0
-7665 -6100 0
-7665 6663 0
7665 6100 -6663 0
-7666 6100 0
-7666 -6663 0
7666 -6100 6663 0
-7667 -7665 0
-7667 -7666 0
7667 7665 7666 0
-7662 -6099 0
-7662 6662 0
7662 6099 -6662 0
-7663 6099 0
-7663 -6662 0
7663 -6099 6662 0
-7664 -7662 0
-7664 -7663 0
7664 7662 7663 0
-7659 -6098 0
-7659 6661 0
7659 6098 -6661 0
-7660 6098 0
-7660 -6661 0
7660 -6098 6661 0
-7661 -7659 0
-7661 -7660 0
7661 7659 7660 0
-7656 -6097 0
-7656 6660 0
7656 6097 -6660 0
-7657 6097 0
-7657 -6660 0
7657 -6097 6660 0
-7658 -7656 0
-7658 -7657 0
7658 7656 7657 0
-7653 -6096 0
-7653 6659 0
7653 6096 -6659 0
-7654 6096 0
-7654 -6659 0
7654 -6096 6659 0
-7655 -7653 0
-7655 -7654 0
7655 7653 7654 0
-7650 -6095 0
-7650 6658 0
7650 6095 -6658 0
-7651 6095 0
-7651 -6658 0
7651 -6095 6658 0
-7652 -7650 0
-7652 -7651 0
7652 7650 7651 0
-7647 -6094 0
-7647 6657 0
7647 6094 -6657 0
-7648 6094 0
-7648 -6657 0
7648 -6094 6657 0
-7649 -7647 0
-7649 -7648 0
7649 7647 7648 0
-7644 -6093 0
-7644 6656 0
7644 6093 -6656 0
-7645 6093 0
-7645 -6656 0
7645 -6093 6656 0
-7646 -7644 0
-7646 -7645 0
7646 7644 7645 0
-7641 -6092 0
-7641 6655 0
7641 6092 -6655 0
-7642 6092 0
-7642 -6655 0
7642 -6092 6655 0
-7643 -7641 0
-7643 -7642 0
7643 7641 7642 0
-7638 -6091 0
-7638 6654 0
7638 6091 -6654 0
-7639 6091 0
-7639 -6654 0
7639 -6091 6654 0
-7640 -7638 0
-7640 -7639 0
7640 7638 7639 0
-7635 -6090 0
-7635 6653 0
7635 6090 -6653 0
-7636 6090 0
-7636 -6653 0
7636 -6090 6653 0
-7637 -7635 0
-7637 -7636 0
7637 7635 7636 0
-7632 -6089 0
-7632 6652 0
7632 6089 -6652 0
-7633 6089 0
-7633 -6652 0
7633 -6089 6652 0
-7634 -7632 0
-7634 -7633 0
7634 7632 7633 0
-7629 -6088 0
-7629 6651 0
7629 6088 -6651 0
-7630 6088 0
-7630 -6651 0
7630 -6088 6651 0
-7631 -7629 0
-7631 -7630 0
7631 7629 7630 0
-7626 -6087 0
-7626 6650 0
7626 6087 -6650 0
-7627 6087 0
-7627 -6650 0
7627 -6087 6650 0
-7628 -7626 0
-7628 -7627 0
7628 7626 7627 0
-7623 -6086 0
-7623 6649 0
7623 6086 -6649 0
-7624 6086 0
-7624 -6649 0
7624 -6086 6649 0
-7625 -7623 0
-7625 -7624 0
7625 7623 7624 0
-7620 -6085 0
-7620 6648 0
7620 6085 -6648 0
-7621 6085 0
-7621 -6648 0
7621 -6085 6648 0
-7622 -7620 0
-7622 -7621 0
7622 7620 7621 0
-7617 -6084 0
-7617 6647 0
7617 6084 -6647 0
-7618 6084 0
-7618 -6647 0
7618 -6084 6647 0
-7619 -7617 0
-7619 -7618 0
7619 7617 7618 0
-7614 -6083 0
-7614 6646 0
7614 6083 -6646 0
-7615 6083 0
-7615 -6646 0
7615 -6083 6646 0
-7616 -7614 0
-7616 -7615 0
7616 7614 7615 0
-7611 -6082 0
-7611 6645 0
7611 6082 -6645 0
-7612 6082 0
-7612 -6645 0
7612 -6082 6645 0
-7613 -7611 0
-7613 -7612 0
7613 7611 7612 0
-7608 -6081 0
-7608 6644 0
7608 6081 -6644 0
-7609 6081 0
-7609 -6644 0
7609 -6081 6644 0
-7610 -7608 0
-7610 -7609 0
7610 7608 7609 0
-7605 -6080 0
-7605 6643 0
7605 6080 -6643 0
-7606 6080 0
-7606 -6643 0
7606 -6080 6643 0
-7607 -7605 0
-7607 -7606 0
7607 7605 7606 0
-7602 -6079 0
-7602 6642 0
7602 6079 -6642 0
-7603 6079 0
-7603 -6642 0
7603 -6079 6642 0
-7604 -7602 0
-7604 -7603 0
7604 7602 7603 0
-7599 -6078 0
-7599 6641 0
7599 6078 -6641 0
-7600 6078 0
-7600 -6641 0
7600 -6078 6641 0
-7601 -7599 0
-7601 -7600 0
7601 7599 7600 0
-7596 -6077 0
-7596 6640 0
7596 6077 -6640 0
-7597 6077 0
-7597 -6640 0
7597 -6077 6640 0
-7598 -7596 0
-7598 -7597 0
7598 7596 7597 0
-7593 -6076 0
-7593 6639 0
7593 6076 -6639 0
-7594 6076 0
-7594 -6639 0
7594 -6076 6639 0
-7595 -7593 0
-7595 -7594 0
7595 7593 7594 0
-7590 -6075 0
-7590 6638 0
7590 6075 -6638 0
-7591 6075 0
-7591 -6638 0
7591 -6075 6638 0
-7592 -7590 0
-7592 -7591 0
7592 7590 7591 0
-7587 -6074 0
-7587 6637 0
7587 6074 -6637 0
-7588 6074 0
-7588 -6637 0
7588 -6074 6637 0
-7589 -7587 0
-7589 -7588 0
7589 7587 7588 0
-7584 -6073 0
-7584 6636 0
7584 6073 -6636 0
-7585 6073 0
-7585 -6636 0
7585 -6073 6636 0
-7586 -7584 0
-7586 -7585 0
7586 7584 7585 0
-7578 -6071 0
-7578 6634 0
7578 6071 -6634 0
-7579 6071 0
-7579 -6634 0
7579 -6071 6634 0
-7580 -7578 0
-7580 -7579 0
7580 7578 7579 0
-7581 -6072 0
-7581 6635 0
7581 6072 -6635 0
-7582 6072 0
-7582 -6635 0
7582 -6072 6635 0
-7583 -7581 0
-7583 -7582 0
7583 7581 7582 0
-7767 7580 0
-7767 7583 0
7767 -7580 -7583 0
-7768 7586 0
-7768 7767 0
7768 -7586 -7767 0
-7769 7589 0
-7769 7768 0
7769 -7589 -7768 0
-7770 7592 0
-7770 7769 0
7770 -7592 -7769 0
-7771 7595 0
-7771 7770 0
7771 -7595 -7770 0
-7772 7598 0
-7772 7771 0
7772 -7598 -7771 0
-7773 7601 0
-7773 7772 0
7773 -7601 -7772 0
-7774 7604 0
-7774 7773 0
7774 -7604 -7773 0
-7775 7607 0
-7775 7774 0
7775 -7607 -7774 0
-7776 7610 0
-7776 7775 0
7776 -7610 -7775 0
-7777 7613 0
-7777 7776 0
7777 -7613 -7776 0
-7778 7616 0
-7778 7777 0
7778 -7616 -7777 0
-7779 7619 0
-7779 7778 0
7779 -7619 -7778 0
-7780 7622 0
-7780 7779 0
7780 -7622 -7779 0
-7781 7625 0
-7781 7780 0
7781 -7625 -7780 0
-7782 7628 0
-7782 7781 0
7782 -7628 -7781 0
-7783 7631 0
-7783 7782 0
7783 -7631 -7782 0
-7784 7634 0
-7784 7783 0
7784 -7634 -7783 0
-7785 7637 0
-7785 7784 0
7785 -7637 -7784 0
-7786 7640 0
-7786 7785 0
7786 -7640 -7785 0
-7787 7643 0
-7787 7786 0
7787 -7643 -7786 0
-7788 7646 0
-7788 7787 0
7788 -7646 -7787 0
-7789 7649 0
-7789 7788 0
7789 -7649 -7788 0
-7790 7652 0
-7790 7789 0
7790 -7652 -7789 0
-7791 7655 0
-7791 7790 0
7791 -7655 -7790 0
-7792 7658 0
-7792 7791 0
7792 -7658 -7791 0
-7793 7661 0
-7793 7792 0
7793 -7661 -7792 0
-7794 7664 0
-7794 7793 0
7794 -7664 -7793 0
-7795 7667 0
-7795 7794 0
7795 -7667 -7794 0
-7796 7670 0
-7796 7795 0
7796 -7670 -7795 0
-7797 7673 0
-7797 7796 0
7797 -7673 -7796 0
-7798 7676 0
-7798 7797 0
7798 -7676 -7797 0
-7799 7679 0
-7799 7798 0
7799 -7679 -7798 0
-7800 7682 0
-7800 7799 0
7800 -7682 -7799 0
-7801 7685 0
-7801 7800 0
7801 -7685 -7800 0
-7802 7688 0
-7802 7801 0
7802 -7688 -7801 0
-7803 7691 0
-7803 7802 0
7803 -7691 -7802 0
-7804 7694 0
-7804 7803 0
7804 -7694 -7803 0
-7805 7697 0
-7805 7804 0
7805 -7697 -7804 0
-7806 7700 0
-7806 7805 0
7806 -7700 -7805 0
-7807 7703 0
-7807 7806 0
7807 -7703 -7806 0
-7808 7706 0
-7808 7807 0
7808 -7706 -7807 0
-7809 7709 0
-7809 7808 0
7809 -7709 -7808 0
-7810 7712 0
-7810 7809 0
7810 -7712 -7809 0
-7811 7715 0
-7811 7810 0
7811 -7715 -7810 0
-7812 7718 0
-7812 7811 0
7812 -7718 -7811 0
-7813 7721 0
-7813 7812 0
7813 -7721 -7812 0
-7814 7724 0
-7814 7813 0
7814 -7724 -7813 0
-7815 7727 0
-7815 7814 0
7815 -7727 -7814 0
-7816 7730 0
-7816 7815 0
7816 -7730 -7815 0
-7817 7733 0
-7817 7816 0
7817 -7733 -7816 0
-7818 7736 0
-7818 7817 0
7818 -7736 -7817 0
-7819 7739 0
-7819 7818 0
7819 -7739 -7818 0
-7820 7742 0
-7820 7819 0
7820 -7742 -7819 0
-7821 7745 0
-7821 7820 0
7821 -7745 -7820 0
-7822 7748 0
-7822 7821 0
7822 -7748 -7821 0
-7823 7751 0
-7823 7822 0
7823 -7751 -7822 0
-7824 7754 0
-7824 7823 0
7824 -7754 -7823 0
-7825 7757 0
-7825 7824 0
7825 -7757 -7824 0
-7826 7760 0
-7826 7825 0
7826 -7760 -7825 0
-7827 7763 0
-7827 7826 0
7827 -7763 -7826 0
-7828 7766 0
-7828 7827 0
7828 -7766 -7827 0
-7829 -6697 0
-7829 7828 0
7829 6697 -7828 0
-7830 -6028 0
-7830 -7829 0
7830 6028 7829 0
-7831 7577 0
-7831 -7830 0
7831 -7577 7830 0
7832 -16916 0
-7832 16916 0
-7833 -5325 0
-7833 7832 0
7833 5325 -7832 0
-7834 5325 0
-7834 -7832 0
7834 -5325 7832 0
-7835 -7833 0
-7835 -7834 0
7835 7833 7834 0
-7836 4213 0
-7836 -7835 0
7836 -4213 7835 0
-7837 7831 0
-7837 -7836 0
7837 -7831 7836 0
-7838 -4257 0
-7838 7832 0
7838 4257 -7832 0
-7839 4257 0
-7839 -7832 0
7839 -4257 7832 0
-7840 -7838 0
-7840 -7839 0
7840 7838 7839 0
-7841 -4213 0
-7841 -7840 0
7841 4213 7840 0
-7842 7837 0
-7842 -7841 0
7842 -7837 7841 0
7843 -16917 0
-7843 16917 0
-7844 -7137 0
-7844 7843 0
7844 7137 -7843 0
-7845 7137 0
-7845 -7843 0
7845 -7137 7843 0
-7846 -7844 0
-7846 -7845 0
7846 7844 7845 0
-7847 6028 0
-7847 -7846 0
7847 -6028 7846 0
-7848 7842 0
-7848 -7847 0
7848 -7842 7847 0
-7849 -7832 0
-7849 7843 0
7849 7832 -7843 0
-7850 7832 0
-7850 -7843 0
7850 -7832 7843 0
-7851 -7849 0
-7851 -7850 0
7851 7849 7850 0
-7852 -6028 0
-7852 -7851 0
7852 6028 7851 0
-7853 7848 0
-7853 -7852 0
7853 -7848 7852 0
7863 -16927 0
-7863 16927 0
7862 -16926 0
-7862 16926 0
7861 -16925 0
-7861 16925 0
7860 -16924 0
-7860 16924 0
7859 -16923 0
-7859 16923 0
7858 -16922 0
-7858 16922 0
7857 -16921 0
-7857 16921 0
7856 -16920 0
-7856 16920 0
7854 -16918 0
-7854 16918 0
7855 -16919 0
-7855 16919 0
-7864 7854 0
-7864 -7855 0
7864 -7854 7855 0
-7865 -7856 0
-7865 7864 0
7865 7856 -7864 0
-7866 -7857 0
-7866 7865 0
7866 7857 -7865 0
-7867 -7858 0
-7867 7866 0
7867 7858 -7866 0
-7868 -7859 0
-7868 7867 0
7868 7859 -7867 0
-7869 -7860 0
-7869 7868 0
7869 7860 -7868 0
-7870 -7861 0
-7870 7869 0
7870 7861 -7869 0
-7871 -7862 0
-7871 7870 0
7871 7862 -7870 0
-7872 -7863 0
-7872 7871 0
7872 7863 -7871 0
-7873 7843 0
-7873 -7872 0
7873 -7843 7872 0
-7874 7853 0
-7874 -7873 0
7874 -7853 7873 0
-7875 -7854 0
-7875 -7855 0
7875 7854 7855 0
-7876 -7856 0
-7876 7875 0
7876 7856 -7875 0
-7877 -7857 0
-7877 7876 0
7877 7857 -7876 0
-7878 -7858 0
-7878 7877 0
7878 7858 -7877 0
-7879 -7859 0
-7879 7878 0
7879 7859 -7878 0
-7880 -7860 0
-7880 7879 0
7880 7860 -7879 0
-7881 -7861 0
-7881 7880 0
7881 7861 -7880 0
-7882 -7862 0
-7882 7881 0
7882 7862 -7881 0
-7883 -7863 0
-7883 7882 0
7883 7863 -7882 0
-7884 -7843 0
-7884 -7883 0
7884 7843 7883 0
-7885 7874 0
-7885 -7884 0
7885 -7874 7884 0
7948 -16990 0
-7948 16990 0
7947 -16989 0
-7947 16989 0
-8132 -7323 0
-8132 7947 0
8132 7323 -7947 0
-8133 7323 0
-8133 -7947 0
8133 -7323 7947 0
-8134 -8132 0
-8134 -8133 0
8134 8132 8133 0
7946 -16988 0
-7946 16988 0
-8129 -7320 0
-8129 7946 0
8129 7320 -7946 0
-8130 7320 0
-8130 -7946 0
8130 -7320 7946 0
-8131 -8129 0
-8131 -8130 0
8131 8129 8130 0
7945 -16987 0
-7945 16987 0
-8126 -7317 0
-8126 7945 0
8126 7317 -7945 0
-8127 7317 0
-8127 -7945 0
8127 -7317 7945 0
-8128 -8126 0
-8128 -8127 0
8128 8126 8127 0
7944 -16986 0
-7944 16986 0
-8123 -7314 0
-8123 7944 0
8123 7314 -7944 0
-8124 7314 0
-8124 -7944 0
8124 -7314 7944 0
-8125 -8123 0
-8125 -8124 0
8125 8123 8124 0
7943 -16985 0
-7943 16985 0
-8120 -7311 0
-8120 7943 0
8120 7311 -7943 0
-8121 7311 0
-8121 -7943 0
8121 -7311 7943 0
-8122 -8120 0
-8122 -8121 0
8122 8120 8121 0
7942 -16984 0
-7942 16984 0
-8117 -7308 0
-8117 7942 0
8117 7308 -7942 0
-8118 7308 0
-8118 -7942 0
8118 -7308 7942 0
-8119 -8117 0
-8119 -8118 0
8119 8117 8118 0
7941 -16983 0
-7941 16983 0
-8114 -7305 0
-8114 7941 0
8114 7305 -7941 0
-8115 7305 0
-8115 -7941 0
8115 -7305 7941 0
-8116 -8114 0
-8116 -8115 0
8116 8114 8115 0
7940 -16982 0
-7940 16982 0
-8111 -7302 0
-8111 7940 0
8111 7302 -7940 0
-8112 7302 0
-8112 -7940 0
8112 -7302 7940 0
-8113 -8111 0
-8113 -8112 0
8113 8111 8112 0
7939 -16981 0
-7939 16981 0
-8108 -7299 0
-8108 7939 0
8108 7299 -7939 0
-8109 7299 0
-8109 -7939 0
8109 -7299 7939 0
-8110 -8108 0
-8110 -8109 0
8110 8108 8109 0
7938 -16980 0
-7938 16980 0
-8105 -7296 0
-8105 7938 0
8105 7296 -7938 0
-8106 7296 0
-8106 -7938 0
8106 -7296 7938 0
-8107 -8105 0
-8107 -8106 0
8107 8105 8106 0
7937 -16979 0
-7937 16979 0
-8102 -7293 0
-8102 7937 0
8102 7293 -7937 0
-8103 7293 0
-8103 -7937 0
8103 -7293 7937 0
-8104 -8102 0
-8104 -8103 0
8104 8102 8103 0
7936 -16978 0
-7936 16978 0
-8099 -7290 0
-8099 7936 0
8099 7290 -7936 0
-8100 7290 0
-8100 -7936 0
8100 -7290 7936 0
-8101 -8099 0
-8101 -8100 0
8101 8099 8100 0
7935 -16977 0
-7935 16977 0
-8096 -7287 0
-8096 7935 0
8096 7287 -7935 0
-8097 7287 0
-8097 -7935 0
8097 -7287 7935 0
-8098 -8096 0
-8098 -8097 0
8098 8096 8097 0
7934 -16976 0
-7934 16976 0
-8093 -7284 0
-8093 7934 0
8093 7284 -7934 0
-8094 7284 0
-8094 -7934 0
8094 -7284 7934 0
-8095 -8093 0
-8095 -8094 0
8095 8093 8094 0
7933 -16975 0
-7933 16975 0
-8090 -7281 0
-8090 7933 0
8090 7281 -7933 0
-8091 7281 0
-8091 -7933 0
8091 -7281 7933 0
-8092 -8090 0
-8092 -8091 0
8092 8090 8091 0
7932 -16974 0
-7932 16974 0
-8087 -7278 0
-8087 7932 0
8087 7278 -7932 0
-8088 7278 0
-8088 -7932 0
8088 -7278 7932 0
-8089 -8087 0
-8089 -8088 0
8089 8087 8088 0
7931 -16973 0
-7931 16973 0
-8084 -7275 0
-8084 7931 0
8084 7275 -7931 0
-8085 7275 0
-8085 -7931 0
8085 -7275 7931 0
-8086 -8084 0
-8086 -8085 0
8086 8084 8085 0
7930 -16972 0
-7930 16972 0
-8081 -7272 0
-8081 7930 0
8081 7272 -7930 0
-8082 7272 0
-8082 -7930 0
8082 -7272 7930 0
-8083 -8081 0
-8083 -8082 0
8083 8081 8082 0
7929 -16971 0
-7929 16971 0
-8078 -7269 0
-8078 7929 0
8078 7269 -7929 0
-8079 7269 0
-8079 -7929 0
8079 -7269 7929 0
-8080 -8078 0
-8080 -8079 0
8080 8078 8079 0
7928 -16970 0
-7928 16970 0
-8075 -7266 0
-8075 7928 0
8075 7266 -7928 0
-8076 7266 0
-8076 -7928 0
8076 -7266 7928 0
-8077 -8075 0
-8077 -8076 0
8077 8075 8076 0
7927 -16969 0
-7927 16969 0
-8072 -7263 0
-8072 7927 0
8072 7263 -7927 0
-8073 7263 0
-8073 -7927 0
8073 -7263 7927 0
-8074 -8072 0
-8074 -8073 0
8074 8072 8073 0
7926 -16968 0
-7926 16968 0
-8069 -7260 0
-8069 7926 0
8069 7260 -7926 0
-8070 7260 0
-8070 -7926 0
8070 -7260 7926 0
-8071 -8069 0
-8071 -8070 0
8071 8069 8070 0
7925 -16967 0
-7925 16967 0
-8066 -7257 0
-8066 7925 0
8066 7257 -7925 0
-8067 7257 0
-8067 -7925 0
8067 -7257 7925 0
-8068 -8066 0
-8068 -8067 0
8068 8066 8067 0
7924 -16966 0
-7924 16966 0
-8063 -7254 0
-8063 7924 0
8063 7254 -7924 0
-8064 7254 0
-8064 -7924 0
8064 -7254 7924 0
-8065 -8063 0
-8065 -8064 0
8065 8063 8064 0
7923 -16965 0
-7923 16965 0
-8060 -7251 0
-8060 7923 0
8060 7251 -7923 0
-8061 7251 0
-8061 -7923 0
8061 -7251 7923 0
-8062 -8060 0
-8062 -8061 0
8062 8060 8061 0
7922 -16964 0
-7922 16964 0
-8057 -7248 0
-8057 7922 0
8057 7248 -7922 0
-8058 7248 0
-8058 -7922 0
8058 -7248 7922 0
-8059 -8057 0
-8059 -8058 0
8059 8057 8058 0
7921 -16963 0
-7921 16963 0
-8054 -7245 0
-8054 7921 0
8054 7245 -7921 0
-8055 7245 0
-8055 -7921 0
8055 -7245 7921 0
-8056 -8054 0
-8056 -8055 0
8056 8054 8055 0
7920 -16962 0
-7920 16962 0
-8051 -7242 0
-8051 7920 0
8051 7242 -7920 0
-8052 7242 0
-8052 -7920 0
8052 -7242 7920 0
-8053 -8051 0
-8053 -8052 0
8053 8051 8052 0
7919 -16961 0
-7919 16961 0
-8048 -7239 0
-8048 7919 0
8048 7239 -7919 0
-8049 7239 0
-8049 -7919 0
8049 -7239 7919 0
-8050 -8048 0
-8050 -8049 0
8050 8048 8049 0
7918 -16960 0
-7918 16960 0
-8045 -7236 0
-8045 7918 0
8045 7236 -7918 0
-8046 7236 0
-8046 -7918 0
8046 -7236 7918 0
-8047 -8045 0
-8047 -8046 0
8047 8045 8046 0
7917 -16959 0
-7917 16959 0
-8042 -7233 0
-8042 7917 0
8042 7233 -7917 0
-8043 7233 0
-8043 -7917 0
8043 -7233 7917 0
-8044 -8042 0
-8044 -8043 0
8044 8042 8043 0
7916 -16958 0
-7916 16958 0
-8039 -7230 0
-8039 7916 0
8039 7230 -7916 0
-8040 7230 0
-8040 -7916 0
8040 -7230 7916 0
-8041 -8039 0
-8041 -8040 0
8041 8039 8040 0
7915 -16957 0
-7915 16957 0
-8036 -7227 0
-8036 7915 0
8036 7227 -7915 0
-8037 7227 0
-8037 -7915 0
8037 -7227 7915 0
-8038 -8036 0
-8038 -8037 0
8038 8036 8037 0
7914 -16956 0
-7914 16956 0
-8033 -7224 0
-8033 7914 0
8033 7224 -7914 0
-8034 7224 0
-8034 -7914 0
8034 -7224 7914 0
-8035 -8033 0
-8035 -8034 0
8035 8033 8034 0
7913 -16955 0
-7913 16955 0
-8030 -7221 0
-8030 7913 0
8030 7221 -7913 0
-8031 7221 0
-8031 -7913 0
8031 -7221 7913 0
-8032 -8030 0
-8032 -8031 0
8032 8030 8031 0
7912 -16954 0
-7912 16954 0
-8027 -7218 0
-8027 7912 0
8027 7218 -7912 0
-8028 7218 0
-8028 -7912 0
8028 -7218 7912 0
-8029 -8027 0
-8029 -8028 0
8029 8027 8028 0
7911 -16953 0
-7911 16953 0
-8024 -7215 0
-8024 7911 0
8024 7215 -7911 0
-8025 7215 0
-8025 -7911 0
8025 -7215 7911 0
-8026 -8024 0
-8026 -8025 0
8026 8024 8025 0
7910 -16952 0
-7910 16952 0
-8021 -7212 0
-8021 7910 0
8021 7212 -7910 0
-8022 7212 0
-8022 -7910 0
8022 -7212 7910 0
-8023 -8021 0
-8023 -8022 0
8023 8021 8022 0
7909 -16951 0
-7909 16951 0
-8018 -7209 0
-8018 7909 0
8018 7209 -7909 0
-8019 7209 0
-8019 -7909 0
8019 -7209 7909 0
-8020 -8018 0
-8020 -8019 0
8020 8018 8019 0
7908 -16950 0
-7908 16950 0
-8015 -7206 0
-8015 7908 0
8015 7206 -7908 0
-8016 7206 0
-8016 -7908 0
8016 -7206 7908 0
-8017 -8015 0
-8017 -8016 0
8017 8015 8016 0
7907 -16949 0
-7907 16949 0
-8012 -7203 0
-8012 7907 0
8012 7203 -7907 0
-8013 7203 0
-8013 -7907 0
8013 -7203 7907 0
-8014 -8012 0
-8014 -8013 0
8014 8012 8013 0
7906 -16948 0
-7906 16948 0
-8009 -7200 0
-8009 7906 0
8009 7200 -7906 0
-8010 7200 0
-8010 -7906 0
8010 -7200 7906 0
-8011 -8009 0
-8011 -8010 0
8011 8009 8010 0
7905 -16947 0
-7905 16947 0
-8006 -7197 0
-8006 7905 0
8006 7197 -7905 0
-8007 7197 0
-8007 -7905 0
8007 -7197 7905 0
-8008 -8006 0
-8008 -8007 0
8008 8006 8007 0
7904 -16946 0
-7904 16946 0
-8003 -7194 0
-8003 7904 0
8003 7194 -7904 0
-8004 7194 0
-8004 -7904 0
8004 -7194 7904 0
-8005 -8003 0
-8005 -8004 0
8005 8003 8004 0
7903 -16945 0
-7903 16945 0
-8000 -7191 0
-8000 7903 0
8000 7191 -7903 0
-8001 7191 0
-8001 -7903 0
8001 -7191 7903 0
-8002 -8000 0
-8002 -8001 0
8002 8000 8001 0
7902 -16944 0
-7902 16944 0
-7997 -7188 0
-7997 7902 0
7997 7188 -7902 0
-7998 7188 0
-7998 -7902 0
7998 -7188 7902 0
-7999 -7997 0
-7999 -7998 0
7999 7997 7998 0
7901 -16943 0
-7901 16943 0
-7994 -7185 0
-7994 7901 0
7994 7185 -7901 0
-7995 7185 0
-7995 -7901 0
7995 -7185 7901 0
-7996 -7994 0
-7996 -7995 0
7996 7994 7995 0
7900 -16942 0
-7900 16942 0
-7991 -7182 0
-7991 7900 0
7991 7182 -7900 0
-7992 7182 0
-7992 -7900 0
7992 -7182 7900 0
-7993 -7991 0
-7993 -7992 0
7993 7991 7992 0
7899 -16941 0
-7899 16941 0
-7988 -7179 0
-7988 7899 0
7988 7179 -7899 0
-7989 7179 0
-7989 -7899 0
7989 -7179 7899 0
-7990 -7988 0
-7990 -7989 0
7990 7988 7989 0
7898 -16940 0
-7898 16940 0
-7985 -7176 0
-7985 7898 0
7985 7176 -7898 0
-7986 7176 0
-7986 -7898 0
7986 -7176 7898 0
-7987 -7985 0
-7987 -7986 0
7987 7985 7986 0
7897 -16939 0
-7897 16939 0
-7982 -7173 0
-7982 7897 0
7982 7173 -7897 0
-7983 7173 0
-7983 -7897 0
7983 -7173 7897 0
-7984 -7982 0
-7984 -7983 0
7984 7982 7983 0
7896 -16938 0
-7896 16938 0
-7979 -7170 0
-7979 7896 0
7979 7170 -7896 0
-7980 7170 0
-7980 -7896 0
7980 -7170 7896 0
-7981 -7979 0
-7981 -7980 0
7981 7979 7980 0
7895 -16937 0
-7895 16937 0
-7976 -7167 0
-7976 7895 0
7976 7167 -7895 0
-7977 7167 0
-7977 -7895 0
7977 -7167 7895 0
-7978 -7976 0
-7978 -7977 0
7978 7976 7977 0
7894 -16936 0
-7894 16936 0
-7973 -7164 0
-7973 7894 0
7973 7164 -7894 0
-7974 7164 0
-7974 -7894 0
7974 -7164 7894 0
-7975 -7973 0
-7975 -7974 0
7975 7973 7974 0
7893 -16935 0
-7893 16935 0
-7970 -7161 0
-7970 7893 0
7970 7161 -7893 0
-7971 7161 0
-7971 -7893 0
7971 -7161 7893 0
-7972 -7970 0
-7972 -7971 0
7972 7970 7971 0
7892 -16934 0
-7892 16934 0
-7967 -7158 0
-7967 7892 0
7967 7158 -7892 0
-7968 7158 0
-7968 -7892 0
7968 -7158 7892 0
-7969 -7967 0
-7969 -7968 0
7969 7967 7968 0
7891 -16933 0
-7891 16933 0
-7964 -7155 0
-7964 7891 0
7964 7155 -7891 0
-7965 7155 0
-7965 -7891 0
7965 -7155 7891 0
-7966 -7964 0
-7966 -7965 0
7966 7964 7965 0
7890 -16932 0
-7890 16932 0
-7961 -7152 0
-7961 7890 0
7961 7152 -7890 0
-7962 7152 0
-7962 -7890 0
7962 -7152 7890 0
-7963 -7961 0
-7963 -7962 0
7963 7961 7962 0
7889 -16931 0
-7889 16931 0
-7958 -7149 0
-7958 7889 0
7958 7149 -7889 0
-7959 7149 0
-7959 -7889 0
7959 -7149 7889 0
-7960 -7958 0
-7960 -7959 0
7960 7958 7959 0
7888 -16930 0
-7888 16930 0
-7955 -7146 0
-7955 7888 0
7955 7146 -7888 0
-7956 7146 0
-7956 -7888 0
7956 -7146 7888 0
-7957 -7955 0
-7957 -7956 0
7957 7955 7956 0
7886 -16928 0
-7886 16928 0
-7949 -7140 0
-7949 7886 0
7949 7140 -7886 0
-7950 7140 0
-7950 -7886 0
7950 -7140 7886 0
-7951 -7949 0
-7951 -7950 0
7951 7949 7950 0
7887 -16929 0
-7887 16929 0
-7952 -7143 0
-7952 7887 0
7952 7143 -7887 0
-7953 7143 0
-7953 -7887 0
7953 -7143 7887 0
-7954 -7952 0
-7954 -7953 0
7954 7952 7953 0
-8135 7951 0
-8135 7954 0
8135 -7951 -7954 0
-8136 7957 0
-8136 8135 0
8136 -7957 -8135 0
-8137 7960 0
-8137 8136 0
8137 -7960 -8136 0
-8138 7963 0
-8138 8137 0
8138 -7963 -8137 0
-8139 7966 0
-8139 8138 0
8139 -7966 -8138 0
-8140 7969 0
-8140 8139 0
8140 -7969 -8139 0
-8141 7972 0
-8141 8140 0
8141 -7972 -8140 0
-8142 7975 0
-8142 8141 0
8142 -7975 -8141 0
-8143 7978 0
-8143 8142 0
8143 -7978 -8142 0
-8144 7981 0
-8144 8143 0
8144 -7981 -8143 0
-8145 7984 0
-8145 8144 0
8145 -7984 -8144 0
-8146 7987 0
-8146 8145 0
8146 -7987 -8145 0
-8147 7990 0
-8147 8146 0
8147 -7990 -8146 0
-8148 7993 0
-8148 8147 0
8148 -7993 -8147 0
-8149 7996 0
-8149 8148 0
8149 -7996 -8148 0
-8150 7999 0
-8150 8149 0
8150 -7999 -8149 0
-8151 8002 0
-8151 8150 0
8151 -8002 -8150 0
-8152 8005 0
-8152 8151 0
8152 -8005 -8151 0
-8153 8008 0
-8153 8152 0
8153 -8008 -8152 0
-8154 8011 0
-8154 8153 0
8154 -8011 -8153 0
-8155 8014 0
-8155 8154 0
8155 -8014 -8154 0
-8156 8017 0
-8156 8155 0
8156 -8017 -8155 0
-8157 8020 0
-8157 8156 0
8157 -8020 -8156 0
-8158 8023 0
-8158 8157 0
8158 -8023 -8157 0
-8159 8026 0
-8159 8158 0
8159 -8026 -8158 0
-8160 8029 0
-8160 8159 0
8160 -8029 -8159 0
-8161 8032 0
-8161 8160 0
8161 -8032 -8160 0
-8162 8035 0
-8162 8161 0
8162 -8035 -8161 0
-8163 8038 0
-8163 8162 0
8163 -8038 -8162 0
-8164 8041 0
-8164 8163 0
8164 -8041 -8163 0
-8165 8044 0
-8165 8164 0
8165 -8044 -8164 0
-8166 8047 0
-8166 8165 0
8166 -8047 -8165 0
-8167 8050 0
-8167 8166 0
8167 -8050 -8166 0
-8168 8053 0
-8168 8167 0
8168 -8053 -8167 0
-8169 8056 0
-8169 8168 0
8169 -8056 -8168 0
-8170 8059 0
-8170 8169 0
8170 -8059 -8169 0
-8171 8062 0
-8171 8170 0
8171 -8062 -8170 0
-8172 8065 0
-8172 8171 0
8172 -8065 -8171 0
-8173 8068 0
-8173 8172 0
8173 -8068 -8172 0
-8174 8071 0
-8174 8173 0
8174 -8071 -8173 0
-8175 8074 0
-8175 8174 0
8175 -8074 -8174 0
-8176 8077 0
-8176 8175 0
8176 -8077 -8175 0
-8177 8080 0
-8177 8176 0
8177 -8080 -8176 0
-8178 8083 0
-8178 8177 0
8178 -8083 -8177 0
-8179 8086 0
-8179 8178 0
8179 -8086 -8178 0
-8180 8089 0
-8180 8179 0
8180 -8089 -8179 0
-8181 8092 0
-8181 8180 0
8181 -8092 -8180 0
-8182 8095 0
-8182 8181 0
8182 -8095 -8181 0
-8183 8098 0
-8183 8182 0
8183 -8098 -8182 0
-8184 8101 0
-8184 8183 0
8184 -8101 -8183 0
-8185 8104 0
-8185 8184 0
8185 -8104 -8184 0
-8186 8107 0
-8186 8185 0
8186 -8107 -8185 0
-8187 8110 0
-8187 8186 0
8187 -8110 -8186 0
-8188 8113 0
-8188 8187 0
8188 -8113 -8187 0
-8189 8116 0
-8189 8188 0
8189 -8116 -8188 0
-8190 8119 0
-8190 8189 0
8190 -8119 -8189 0
-8191 8122 0
-8191 8190 0
8191 -8122 -8190 0
-8192 8125 0
-8192 8191 0
8192 -8125 -8191 0
-8193 8128 0
-8193 8192 0
8193 -8128 -8192 0
-8194 8131 0
-8194 8193 0
8194 -8131 -8193 0
-8195 8134 0
-8195 8194 0
8195 -8134 -8194 0
-8196 -7948 0
-8196 8195 0
8196 7948 -8195 0
-8197 6028 0
-8197 -8196 0
8197 -6028 8196 0
-8198 7885 0
-8198 -8197 0
8198 -7885 8197 0
-8382 -6133 0
-8382 7947 0
8382 6133 -7947 0
-8383 6133 0
-8383 -7947 0
8383 -6133 7947 0
-8384 -8382 0
-8384 -8383 0
8384 8382 8383 0
-8379 -6132 0
-8379 7946 0
8379 6132 -7946 0
-8380 6132 0
-8380 -7946 0
8380 -6132 7946 0
-8381 -8379 0
-8381 -8380 0
8381 8379 8380 0
-8376 -6131 0
-8376 7945 0
8376 6131 -7945 0
-8377 6131 0
-8377 -7945 0
8377 -6131 7945 0
-8378 -8376 0
-8378 -8377 0
8378 8376 8377 0
-8373 -6130 0
-8373 7944 0
8373 6130 -7944 0
-8374 6130 0
-8374 -7944 0
8374 -6130 7944 0
-8375 -8373 0
-8375 -8374 0
8375 8373 8374 0
-8370 -6129 0
-8370 7943 0
8370 6129 -7943 0
-8371 6129 0
-8371 -7943 0
8371 -6129 7943 0
-8372 -8370 0
-8372 -8371 0
8372 8370 8371 0
-8367 -6128 0
-8367 7942 0
8367 6128 -7942 0
-8368 6128 0
-8368 -7942 0
8368 -6128 7942 0
-8369 -8367 0
-8369 -8368 0
8369 8367 8368 0
-8364 -6127 0
-8364 7941 0
8364 6127 -7941 0
-8365 6127 0
-8365 -7941 0
8365 -6127 7941 0
-8366 -8364 0
-8366 -8365 0
8366 8364 8365 0
-8361 -6126 0
-8361 7940 0
8361 6126 -7940 0
-8362 6126 0
-8362 -7940 0
8362 -6126 7940 0
-8363 -8361 0
-8363 -8362 0
8363 8361 8362 0
-8358 -6125 0
-8358 7939 0
8358 6125 -7939 0
-8359 6125 0
-8359 -7939 0
8359 -6125 7939 0
-8360 -8358 0
-8360 -8359 0
8360 8358 8359 0
-8355 -6124 0
-8355 7938 0
8355 6124 -7938 0
-8356 6124 0
-8356 -7938 0
8356 -6124 7938 0
-8357 -8355 0
-8357 -8356 0
8357 8355 8356 0
-8352 -6123 0
-8352 7937 0
8352 6123 -7937 0
-8353 6123 0
-8353 -7937 0
8353 -6123 7937 0
-8354 -8352 0
-8354 -8353 0
8354 8352 8353 0
-8349 -6122 0
-8349 7936 0
8349 6122 -7936 0
-8350 6122 0
-8350 -7936 0
8350 -6122 7936 0
-8351 -8349 0
-8351 -8350 0
8351 8349 8350 0
-8346 -6121 0
-8346 7935 0
8346 6121 -7935 0
-8347 6121 0
-8347 -7935 0
8347 -6121 7935 0
-8348 -8346 0
-8348 -8347 0
8348 8346 8347 0
-8343 -6120 0
-8343 7934 0
8343 6120 -7934 0
-8344 6120 0
-8344 -7934 0
8344 -6120 7934 0
-8345 -8343 0
-8345 -8344 0
8345 8343 8344 0
-8340 -6119 0
-8340 7933 0
8340 6119 -7933 0
-8341 6119 0
-8341 -7933 0
8341 -6119 7933 0
-8342 -8340 0
-8342 -8341 0
8342 8340 8341 0
-8337 -6118 0
-8337 7932 0
8337 6118 -7932 0
-8338 6118 0
-8338 -7932 0
8338 -6118 7932 0
-8339 -8337 0
-8339 -8338 0
8339 8337 8338 0
-8334 -6117 0
-8334 7931 0
8334 6117 -7931 0
-8335 6117 0
-8335 -7931 0
8335 -6117 7931 0
-8336 -8334 0
-8336 -8335 0
8336 8334 8335 0
-8331 -6116 0
-8331 7930 0
8331 6116 -7930 0
-8332 6116 0
-8332 -7930 0
8332 -6116 7930 0
-8333 -8331 0
-8333 -8332 0
8333 8331 8332 0
-8328 -6115 0
-8328 7929 0
8328 6115 -7929 0
-8329 6115 0
-8329 -7929 0
8329 -6115 7929 0
-8330 -8328 0
-8330 -8329 0
8330 8328 8329 0
-8325 -6114 0
-8325 7928 0
8325 6114 -7928 0
-8326 6114 0
-8326 -7928 0
8326 -6114 7928 0
-8327 -8325 0
-8327 -8326 0
8327 8325 8326 0
-8322 -6113 0
-8322 7927 0
8322 6113 -7927 0
-8323 6113 0
-8323 -7927 0
8323 -6113 7927 0
-8324 -8322 0
-8324 -8323 0
8324 8322 8323 0
-8319 -6112 0
-8319 7926 0
8319 6112 -7926 0
-8320 6112 0
-8320 -7926 0
8320 -6112 7926 0
-8321 -8319 0
-8321 -8320 0
8321 8319 8320 0
-8316 -6111 0
-8316 7925 0
8316 6111 -7925 0
-8317 6111 0
-8317 -7925 0
8317 -6111 7925 0
-8318 -8316 0
-8318 -8317 0
8318 8316 8317 0
-8313 -6110 0
-8313 7924 0
8313 6110 -7924 0
-8314 6110 0
-8314 -7924 0
8314 -6110 7924 0
-8315 -8313 0
-8315 -8314 0
8315 8313 8314 0
-8310 -6109 0
-8310 7923 0
8310 6109 -7923 0
-8311 6109 0
-8311 -7923 0
8311 -6109 7923 0
-8312 -8310 0
-8312 -8311 0
8312 8310 8311 0
-8307 -6108 0
-8307 7922 0
8307 6108 -7922 0
-8308 6108 0
-8308 -7922 0
8308 -6108 7922 0
-8309 -8307 0
-8309 -8308 0
8309 8307 8308 0
-8304 -6107 0
-8304 7921 0
8304 6107 -7921 0
-8305 6107 0
-8305 -7921 0
8305 -6107 7921 0
-8306 -8304 0
-8306 -8305 0
8306 8304 8305 0
-8301 -6106 0
-8301 7920 0
8301 6106 -7920 0
-8302 6106 0
-8302 -7920 0
8302 -6106 7920 0
-8303 -8301 0
-8303 -8302 0
8303 8301 8302 0
-8298 -6105 0
-8298 7919 0
8298 6105 -7919 0
-8299 6105 0
-8299 -7919 0
8299 -6105 7919 0
-8300 -8298 0
-8300 -8299 0
8300 8298 8299 0
-8295 -6104 0
-8295 7918 0
8295 6104 -7918 0
-8296 6104 0
-8296 -7918 0
8296 -6104 7918 0
-8297 -8295 0
-8297 -8296 0
8297 8295 8296 0
-8292 -6103 0
-8292 7917 0
8292 6103 -7917 0
-8293 6103 0
-8293 -7917 0
8293 -6103 7917 0
-8294 -8292 0
-8294 -8293 0
8294 8292 8293 0
-8289 -6102 0
-8289 7916 0
8289 6102 -7916 0
-8290 6102 0
-8290 -7916 0
8290 -6102 7916 0
-8291 -8289 0
-8291 -8290 0
8291 8289 8290 0
-8286 -6101 0
-8286 7915 0
8286 6101 -7915 0
-8287 6101 0
-8287 -7915 0
8287 -6101 7915 0
-8288 -8286 0
-8288 -8287 0
8288 8286 8287 0
-8283 -6100 0
-8283 7914 0
8283 6100 -7914 0
-8284 6100 0
-8284 -7914 0
8284 -6100 7914 0
-8285 -8283 0
-8285 -8284 0
8285 8283 8284 0
-8280 -6099 0
-8280 7913 0
8280 6099 -7913 0
-8281 6099 0
-8281 -7913 0
8281 -6099 7913 0
-8282 -8280 0
-8282 -8281 0
8282 8280 8281 0
-8277 -6098 0
-8277 7912 0
8277 6098 -7912 0
-8278 6098 0
-8278 -7912 0
8278 -6098 7912 0
-8279 -8277 0
-8279 -8278 0
8279 8277 8278 0
-8274 -6097 0
-8274 7911 0
8274 6097 -7911 0
-8275 6097 0
-8275 -7911 0
8275 -6097 7911 0
-8276 -8274 0
-8276 -8275 0
8276 8274 8275 0
-8271 -6096 0
-8271 7910 0
8271 6096 -7910 0
-8272 6096 0
-8272 -7910 0
8272 -6096 7910 0
-8273 -8271 0
-8273 -8272 0
8273 8271 8272 0
-8268 -6095 0
-8268 7909 0
8268 6095 -7909 0
-8269 6095 0
-8269 -7909 0
8269 -6095 7909 0
-8270 -8268 0
-8270 -8269 0
8270 8268 8269 0
-8265 -6094 0
-8265 7908 0
8265 6094 -7908 0
-8266 6094 0
-8266 -7908 0
8266 -6094 7908 0
-8267 -8265 0
-8267 -8266 0
8267 8265 8266 0
-8262 -6093 0
-8262 7907 0
8262 6093 -7907 0
-8263 6093 0
-8263 -7907 0
8263 -6093 7907 0
-8264 -8262 0
-8264 -8263 0
8264 8262 8263 0
-8259 -6092 0
-8259 7906 0
8259 6092 -7906 0
-8260 6092 0
-8260 -7906 0
8260 -6092 7906 0
-8261 -8259 0
-8261 -8260 0
8261 8259 8260 0
-8256 -6091 0
-8256 7905 0
8256 6091 -7905 0
-8257 6091 0
-8257 -7905 0
8257 -6091 7905 0
-8258 -8256 0
-8258 -8257 0
8258 8256 8257 0
-8253 -6090 0
-8253 7904 0
8253 6090 -7904 0
-8254 6090 0
-8254 -7904 0
8254 -6090 7904 0
-8255 -8253 0
-8255 -8254 0
8255 8253 8254 0
-8250 -6089 0
-8250 7903 0
8250 6089 -7903 0
-8251 6089 0
-8251 -7903 0
8251 -6089 7903 0
-8252 -8250 0
-8252 -8251 0
8252 8250 8251 0
-8247 -6088 0
-8247 7902 0
8247 6088 -7902 0
-8248 6088 0
-8248 -7902 0
8248 -6088 7902 0
-8249 -8247 0
-8249 -8248 0
8249 8247 8248 0
-8244 -6087 0
-8244 7901 0
8244 6087 -7901 0
-8245 6087 0
-8245 -7901 0
8245 -6087 7901 0
-8246 -8244 0
-8246 -8245 0
8246 8244 8245 0
-8241 -6086 0
-8241 7900 0
8241 6086 -7900 0
-8242 6086 0
-8242 -7900 0
8242 -6086 7900 0
-8243 -8241 0
-8243 -8242 0
8243 8241 8242 0
-8238 -6085 0
-8238 7899 0
8238 6085 -7899 0
-8239 6085 0
-8239 -7899 0
8239 -6085 7899 0
-8240 -8238 0
-8240 -8239 0
8240 8238 8239 0
-8235 -6084 0
-8235 7898 0
8235 6084 -7898 0
-8236 6084 0
-8236 -7898 0
8236 -6084 7898 0
-8237 -8235 0
-8237 -8236 0
8237 8235 8236 0
-8232 -6083 0
-8232 7897 0
8232 6083 -7897 0
-8233 6083 0
-8233 -7897 0
8233 -6083 7897 0
-8234 -8232 0
-8234 -8233 0
8234 8232 8233 0
-8229 -6082 0
-8229 7896 0
8229 6082 -7896 0
-8230 6082 0
-8230 -7896 0
8230 -6082 7896 0
-8231 -8229 0
-8231 -8230 0
8231 8229 8230 0
-8226 -6081 0
-8226 7895 0
8226 6081 -7895 0
-8227 6081 0
-8227 -7895 0
8227 -6081 7895 0
-8228 -8226 0
-8228 -8227 0
8228 8226 8227 0
-8223 -6080 0
-8223 7894 0
8223 6080 -7894 0
-8224 6080 0
-8224 -7894 0
8224 -6080 7894 0
-8225 -8223 0
-8225 -8224 0
8225 8223 8224 0
-8220 -6079 0
-8220 7893 0
8220 6079 -7893 0
-8221 6079 0
-8221 -7893 0
8221 -6079 7893 0
-8222 -8220 0
-8222 -8221 0
8222 8220 8221 0
-8217 -6078 0
-8217 7892 0
8217 6078 -7892 0
-8218 6078 0
-8218 -7892 0
8218 -6078 7892 0
-8219 -8217 0
-8219 -8218 0
8219 8217 8218 0
-8214 -6077 0
-8214 7891 0
8214 6077 -7891 0
-8215 6077 0
-8215 -7891 0
8215 -6077 7891 0
-8216 -8214 0
-8216 -8215 0
8216 8214 8215 0
-8211 -6076 0
-8211 7890 0
8211 6076 -7890 0
-8212 6076 0
-8212 -7890 0
8212 -6076 7890 0
-8213 -8211 0
-8213 -8212 0
8213 8211 8212 0
-8208 -6075 0
-8208 7889 0
8208 6075 -7889 0
-8209 6075 0
-8209 -7889 0
8209 -6075 7889 0
-8210 -8208 0
-8210 -8209 0
8210 8208 8209 0
-8205 -6074 0
-8205 7888 0
8205 6074 -7888 0
-8206 6074 0
-8206 -7888 0
8206 -6074 7888 0
-8207 -8205 0
-8207 -8206 0
8207 8205 8206 0
-8199 -6072 0
-8199 7886 0
8199 6072 -7886 0
-8200 6072 0
-8200 -7886 0
8200 -6072 7886 0
-8201 -8199 0
-8201 -8200 0
8201 8199 8200 0
-8202 -6073 0
-8202 7887 0
8202 6073 -7887 0
-8203 6073 0
-8203 -7887 0
8203 -6073 7887 0
-8204 -8202 0
-8204 -8203 0
8204 8202 8203 0
-8385 8201 0
-8385 8204 0
8385 -8201 -8204 0
-8386 8207 0
-8386 8385 0
8386 -8207 -8385 0
-8387 8210 0
-8387 8386 0
8387 -8210 -8386 0
-8388 8213 0
-8388 8387 0
8388 -8213 -8387 0
-8389 8216 0
-8389 8388 0
8389 -8216 -8388 0
-8390 8219 0
-8390 8389 0
8390 -8219 -8389 0
-8391 8222 0
-8391 8390 0
8391 -8222 -8390 0
-8392 8225 0
-8392 8391 0
8392 -8225 -8391 0
-8393 8228 0
-8393 8392 0
8393 -8228 -8392 0
-8394 8231 0
-8394 8393 0
8394 -8231 -8393 0
-8395 8234 0
-8395 8394 0
8395 -8234 -8394 0
-8396 8237 0
-8396 8395 0
8396 -8237 -8395 0
-8397 8240 0
-8397 8396 0
8397 -8240 -8396 0
-8398 8243 0
-8398 8397 0
8398 -8243 -8397 0
-8399 8246 0
-8399 8398 0
8399 -8246 -8398 0
-8400 8249 0
-8400 8399 0
8400 -8249 -8399 0
-8401 8252 0
-8401 8400 0
8401 -8252 -8400 0
-8402 8255 0
-8402 8401 0
8402 -8255 -8401 0
-8403 8258 0
-8403 8402 0
8403 -8258 -8402 0
-8404 8261 0
-8404 8403 0
8404 -8261 -8403 0
-8405 8264 0
-8405 8404 0
8405 -8264 -8404 0
-8406 8267 0
-8406 8405 0
8406 -8267 -8405 0
-8407 8270 0
-8407 8406 0
8407 -8270 -8406 0
-8408 8273 0
-8408 8407 0
8408 -8273 -8407 0
-8409 8276 0
-8409 8408 0
8409 -8276 -8408 0
-8410 8279 0
-8410 8409 0
8410 -8279 -8409 0
-8411 8282 0
-8411 8410 0
8411 -8282 -8410 0
-8412 8285 0
-8412 8411 0
8412 -8285 -8411 0
-8413 8288 0
-8413 8412 0
8413 -8288 -8412 0
-8414 8291 0
-8414 8413 0
8414 -8291 -8413 0
-8415 8294 0
-8415 8414 0
8415 -8294 -8414 0
-8416 8297 0
-8416 8415 0
8416 -8297 -8415 0
-8417 8300 0
-8417 8416 0
8417 -8300 -8416 0
-8418 8303 0
-8418 8417 0
8418 -8303 -8417 0
-8419 8306 0
-8419 8418 0
8419 -8306 -8418 0
-8420 8309 0
-8420 8419 0
8420 -8309 -8419 0
-8421 8312 0
-8421 8420 0
8421 -8312 -8420 0
-8422 8315 0
-8422 8421 0
8422 -8315 -8421 0
-8423 8318 0
-8423 8422 0
8423 -8318 -8422 0
-8424 8321 0
-8424 8423 0
8424 -8321 -8423 0
-8425 8324 0
-8425 8424 0
8425 -8324 -8424 0
-8426 8327 0
-8426 8425 0
8426 -8327 -8425 0
-8427 8330 0
-8427 8426 0
8427 -8330 -8426 0
-8428 8333 0
-8428 8427 0
8428 -8333 -8427 0
-8429 8336 0
-8429 8428 0
8429 -8336 -8428 0
-8430 8339 0
-8430 8429 0
8430 -8339 -8429 0
-8431 8342 0
-8431 8430 0
8431 -8342 -8430 0
-8432 8345 0
-8432 8431 0
8432 -8345 -8431 0
-8433 8348 0
-8433 8432 0
8433 -8348 -8432 0
-8434 8351 0
-8434 8433 0
8434 -8351 -8433 0
-8435 8354 0
-8435 8434 0
8435 -8354 -8434 0
-8436 8357 0
-8436 8435 0
8436 -8357 -8435 0
-8437 8360 0
-8437 8436 0
8437 -8360 -8436 0
-8438 8363 0
-8438 8437 0
8438 -8363 -8437 0
-8439 8366 0
-8439 8438 0
8439 -8366 -8438 0
-8440 8369 0
-8440 8439 0
8440 -8369 -8439 0
-8441 8372 0
-8441 8440 0
8441 -8372 -8440 0
-8442 8375 0
-8442 8441 0
8442 -8375 -8441 0
-8443 8378 0
-8443 8442 0
8443 -8378 -8442 0
-8444 8381 0
-8444 8443 0
8444 -8381 -8443 0
-8445 8384 0
-8445 8444 0
8445 -8384 -8444 0
-8446 -7948 0
-8446 8445 0
8446 7948 -8445 0
-8447 -6028 0
-8447 -8446 0
8447 6028 8446 0
-8448 8198 0
-8448 -8447 0
8448 -8198 8447 0
8512 -17054 0
-8512 17054 0
8511 -17053 0
-8511 17053 0
-8936 6695 0
-8936 6696 0
8936 -6695 -6696 0
-8929 6694 0
-8929 6695 0
8929 -6694 -6695 0
-8922 6693 0
-8922 6694 0
8922 -6693 -6694 0
-8915 6692 0
-8915 6693 0
8915 -6692 -6693 0
-8908 6691 0
-8908 6692 0
8908 -6691 -6692 0
-8901 6690 0
-8901 6691 0
8901 -6690 -6691 0
-8894 6689 0
-8894 6690 0
8894 -6689 -6690 0
-8887 6688 0
-8887 6689 0
8887 -6688 -6689 0
-8880 6687 0
-8880 6688 0
8880 -6687 -6688 0
-8873 6686 0
-8873 6687 0
8873 -6686 -6687 0
-8866 6685 0
-8866 6686 0
8866 -6685 -6686 0
-8859 6684 0
-8859 6685 0
8859 -6684 -6685 0
-8852 6683 0
-8852 6684 0
8852 -6683 -6684 0
-8845 6682 0
-8845 6683 0
8845 -6682 -6683 0
-8838 6681 0
-8838 6682 0
8838 -6681 -6682 0
-8831 6680 0
-8831 6681 0
8831 -6680 -6681 0
-8824 6679 0
-8824 6680 0
8824 -6679 -6680 0
-8817 6678 0
-8817 6679 0
8817 -6678 -6679 0
-8810 6677 0
-8810 6678 0
8810 -6677 -6678 0
-8803 6676 0
-8803 6677 0
8803 -6676 -6677 0
-8796 6675 0
-8796 6676 0
8796 -6675 -6676 0
-8789 6674 0
-8789 6675 0
8789 -6674 -6675 0
-8782 6673 0
-8782 6674 0
8782 -6673 -6674 0
-8775 6672 0
-8775 6673 0
8775 -6672 -6673 0
-8768 6671 0
-8768 6672 0
8768 -6671 -6672 0
-8761 6670 0
-8761 6671 0
8761 -6670 -6671 0
-8754 6669 0
-8754 6670 0
8754 -6669 -6670 0
-8747 6668 0
-8747 6669 0
8747 -6668 -6669 0
-8740 6667 0
-8740 6668 0
8740 -6667 -6668 0
-8733 6666 0
-8733 6667 0
8733 -6666 -6667 0
-8726 6665 0
-8726 6666 0
8726 -6665 -6666 0
-8719 6664 0
-8719 6665 0
8719 -6664 -6665 0
-8712 6663 0
-8712 6664 0
8712 -6663 -6664 0
-8705 6662 0
-8705 6663 0
8705 -6662 -6663 0
-8698 6661 0
-8698 6662 0
8698 -6661 -6662 0
-8691 6660 0
-8691 6661 0
8691 -6660 -6661 0
-8684 6659 0
-8684 6660 0
8684 -6659 -6660 0
-8677 6658 0
-8677 6659 0
8677 -6658 -6659 0
-8670 6657 0
-8670 6658 0
8670 -6657 -6658 0
-8663 6656 0
-8663 6657 0
8663 -6656 -6657 0
-8656 6655 0
-8656 6656 0
8656 -6655 -6656 0
-8649 6654 0
-8649 6655 0
8649 -6654 -6655 0
-8642 6653 0
-8642 6654 0
8642 -6653 -6654 0
-8635 6652 0
-8635 6653 0
8635 -6652 -6653 0
-8628 6651 0
-8628 6652 0
8628 -6651 -6652 0
-8621 6650 0
-8621 6651 0
8621 -6650 -6651 0
-8614 6649 0
-8614 6650 0
8614 -6649 -6650 0
-8607 6648 0
-8607 6649 0
8607 -6648 -6649 0
-8600 6647 0
-8600 6648 0
8600 -6647 -6648 0
-8593 6646 0
-8593 6647 0
8593 -6646 -6647 0
-8586 6645 0
-8586 6646 0
8586 -6645 -6646 0
-8579 6644 0
-8579 6645 0
8579 -6644 -6645 0
-8572 6643 0
-8572 6644 0
8572 -6643 -6644 0
-8565 6642 0
-8565 6643 0
8565 -6642 -6643 0
-8558 6641 0
-8558 6642 0
8558 -6641 -6642 0
-8551 6640 0
-8551 6641 0
8551 -6640 -6641 0
-8544 6639 0
-8544 6640 0
8544 -6639 -6640 0
-8537 6638 0
-8537 6639 0
8537 -6638 -6639 0
-8530 6637 0
-8530 6638 0
8530 -6637 -6638 0
-8523 6636 0
-8523 6637 0
8523 -6636 -6637 0
-8516 6635 0
-8516 6636 0
8516 -6635 -6636 0
-8513 6634 0
-8513 6635 0
8513 -6634 -6635 0
-8517 -6635 0
-8517 -6636 0
8517 6635 6636 0
-8518 -8516 0
-8518 -8517 0
8518 8516 8517 0
-8519 8513 0
-8519 8518 0
8519 -8513 -8518 0
-8522 -8516 0
-8522 -8519 0
8522 8516 8519 0
-8524 -6636 0
-8524 -6637 0
8524 6636 6637 0
-8525 -8523 0
-8525 -8524 0
8525 8523 8524 0
-8526 -8522 0
-8526 8525 0
8526 8522 -8525 0
-8529 -8523 0
-8529 -8526 0
8529 8523 8526 0
-8531 -6637 0
-8531 -6638 0
8531 6637 6638 0
-8532 -8530 0
-8532 -8531 0
8532 8530 8531 0
-8533 -8529 0
-8533 8532 0
8533 8529 -8532 0
-8536 -8530 0
-8536 -8533 0
8536 8530 8533 0
-8538 -6638 0
-8538 -6639 0
8538 6638 6639 0
-8539 -8537 0
-8539 -8538 0
8539 8537 8538 0
-8540 -8536 0
-8540 8539 0
8540 8536 -8539 0
-8543 -8537 0
-8543 -8540 0
8543 8537 8540 0
-8545 -6639 0
-8545 -6640 0
8545 6639 6640 0
-8546 -8544 0
-8546 -8545 0
8546 8544 8545 0
-8547 -8543 0
-8547 8546 0
8547 8543 -8546 0
-8550 -8544 0
-8550 -8547 0
8550 8544 8547 0
-8552 -6640 0
-8552 -6641 0
8552 6640 6641 0
-8553 -8551 0
-8553 -8552 0
8553 8551 8552 0
-8554 -8550 0
-8554 8553 0
8554 8550 -8553 0
-8557 -8551 0
-8557 -8554 0
8557 8551 8554 0
-8559 -6641 0
-8559 -6642 0
8559 6641 6642 0
-8560 -8558 0
-8560 -8559 0
8560 8558 8559 0
-8561 -8557 0
-8561 8560 0
8561 8557 -8560 0
-8564 -8558 0
-8564 -8561 0
8564 8558 8561 0
-8566 -6642 0
-8566 -6643 0
8566 6642 6643 0
-8567 -8565 0
-8567 -8566 0
8567 8565 8566 0
-8568 -8564 0
-8568 8567 0
8568 8564 -8567 0
-8571 -8565 0
-8571 -8568 0
8571 8565 8568 0
-8573 -6643 0
-8573 -6644 0
8573 6643 6644 0
-8574 -8572 0
-8574 -8573 0
8574 8572 8573 0
-8575 -8571 0
-8575 8574 0
8575 8571 -8574 0
-8578 -8572 0
-8578 -8575 0
8578 8572 8575 0
-8580 -6644 0
-8580 -6645 0
8580 6644 6645 0
-8581 -8579 0
-8581 -8580 0
8581 8579 8580 0
-8582 -8578 0
-8582 8581 0
8582 8578 -8581 0
-8585 -8579 0
-8585 -8582 0
8585 8579 8582 0
-8587 -6645 0
-8587 -6646 0
8587 6645 6646 0
-8588 -8586 0
-8588 -8587 0
8588 8586 8587 0
-8589 -8585 0
-8589 8588 0
8589 8585 -8588 0
-8592 -8586 0
-8592 -8589 0
8592 8586 8589 0
-8594 -6646 0
-8594 -6647 0
8594 6646 6647 0
-8595 -8593 0
-8595 -8594 0
8595 8593 8594 0
-8596 -8592 0
-8596 8595 0
8596 8592 -8595 0
-8599 -8593 0
-8599 -8596 0
8599 8593 8596 0
-8601 -6647 0
-8601 -6648 0
8601 6647 6648 0
-8602 -8600 0
-8602 -8601 0
8602 8600 8601 0
-8603 -8599 0
-8603 8602 0
8603 8599 -8602 0
-8606 -8600 0
-8606 -8603 0
8606 8600 8603 0
-8608 -6648 0
-8608 -6649 0
8608 6648 6649 0
-8609 -8607 0
-8609 -8608 0
8609 8607 8608 0
-8610 -8606 0
-8610 8609 0
8610 8606 -8609 0
-8613 -8607 0
-8613 -8610 0
8613 8607 8610 0
-8615 -6649 0
-8615 -6650 0
8615 6649 6650 0
-8616 -8614 0
-8616 -8615 0
8616 8614 8615 0
-8617 -8613 0
-8617 8616 0
8617 8613 -8616 0
-8620 -8614 0
-8620 -8617 0
8620 8614 8617 0
-8622 -6650 0
-8622 -6651 0
8622 6650 6651 0
-8623 -8621 0
-8623 -8622 0
8623 8621 8622 0
-8624 -8620 0
-8624 8623 0
8624 8620 -8623 0
-8627 -8621 0
-8627 -8624 0
8627 8621 8624 0
-8629 -6651 0
-8629 -6652 0
8629 6651 6652 0
-8630 -8628 0
-8630 -8629 0
8630 8628 8629 0
-8631 -8627 0
-8631 8630 0
8631 8627 -8630 0
-8634 -8628 0
-8634 -8631 0
8634 8628 8631 0
-8636 -6652 0
-8636 -6653 0
8636 6652 6653 0
-8637 -8635 0
-8637 -8636 0
8637 8635 8636 0
-8638 -8634 0
-8638 8637 0
8638 8634 -8637 0
-8641 -8635 0
-8641 -8638 0
8641 8635 8638 0
-8643 -6653 0
-8643 -6654 0
8643 6653 6654 0
-8644 -8642 0
-8644 -8643 0
8644 8642 8643 0
-8645 -8641 0
-8645 8644 0
8645 8641 -8644 0
-8648 -8642 0
-8648 -8645 0
8648 8642 8645 0
-8650 -6654 0
-8650 -6655 0
8650 6654 6655 0
-8651 -8649 0
-8651 -8650 0
8651 8649 8650 0
-8652 -8648 0
-8652 8651 0
8652 8648 -8651 0
-8655 -8649 0
-8655 -8652 0
8655 8649 8652 0
-8657 -6655 0
-8657 -6656 0
8657 6655 6656 0
-8658 -8656 0
-8658 -8657 0
8658 8656 8657 0
-8659 -8655 0
-8659 8658 0
8659 8655 -8658 0
-8662 -8656 0
-8662 -8659 0
8662 8656 8659 0
-8664 -6656 0
-8664 -6657 0
8664 6656 6657 0
-8665 -8663 0
-8665 -8664 0
8665 8663 8664 0
-8666 -8662 0
-8666 8665 0
8666 8662 -8665 0
-8669 -8663 0
-8669 -8666 0
8669 8663 8666 0
-8671 -6657 0
-8671 -6658 0
8671 6657 6658 0
-8672 -8670 0
-8672 -8671 0
8672 8670 8671 0
-8673 -8669 0
-8673 8672 0
8673 8669 -8672 0
-8676 -8670 0
-8676 -8673 0
8676 8670 8673 0
-8678 -6658 0
-8678 -6659 0
8678 6658 6659 0
-8679 -8677 0
-8679 -8678 0
8679 8677 8678 0
-8680 -8676 0
-8680 8679 0
8680 8676 -8679 0
-8683 -8677 0
-8683 -8680 0
8683 8677 8680 0
-8685 -6659 0
-8685 -6660 0
8685 6659 6660 0
-8686 -8684 0
-8686 -8685 0
8686 8684 8685 0
-8687 -8683 0
-8687 8686 0
8687 8683 -8686 0
-8690 -8684 0
-8690 -8687 0
8690 8684 8687 0
-8692 -6660 0
-8692 -6661 0
8692 6660 6661 0
-8693 -8691 0
-8693 -8692 0
8693 8691 8692 0
-8694 -8690 0
-8694 8693 0
8694 8690 -8693 0
-8697 -8691 0
-8697 -8694 0
8697 8691 8694 0
-8699 -6661 0
-8699 -6662 0
8699 6661 6662 0
-8700 -8698 0
-8700 -8699 0
8700 8698 8699 0
-8701 -8697 0
-8701 8700 0
8701 8697 -8700 0
-8704 -8698 0
-8704 -8701 0
8704 8698 8701 0
-8706 -6662 0
-8706 -6663 0
8706 6662 6663 0
-8707 -8705 0
-8707 -8706 0
8707 8705 8706 0
-8708 -8704 0
-8708 8707 0
8708 8704 -8707 0
-8711 -8705 0
-8711 -8708 0
8711 8705 8708 0
-8713 -6663 0
-8713 -6664 0
8713 6663 6664 0
-8714 -8712 0
-8714 -8713 0
8714 8712 8713 0
-8715 -8711 0
-8715 8714 0
8715 8711 -8714 0
-8718 -8712 0
-8718 -8715 0
8718 8712 8715 0
-8720 -6664 0
-8720 -6665 0
8720 6664 6665 0
-8721 -8719 0
-8721 -8720 0
8721 8719 8720 0
-8722 -8718 0
-8722 8721 0
8722 8718 -8721 0
-8725 -8719 0
-8725 -8722 0
8725 8719 8722 0
-8727 -6665 0
-8727 -6666 0
8727 6665 6666 0
-8728 -8726 0
-8728 -8727 0
8728 8726 8727 0
-8729 -8725 0
-8729 8728 0
8729 8725 -8728 0
-8732 -8726 0
-8732 -8729 0
8732 8726 8729 0
-8734 -6666 0
-8734 -6667 0
8734 6666 6667 0
-8735 -8733 0
-8735 -8734 0
8735 8733 8734 0
-8736 -8732 0
-8736 8735 0
8736 8732 -8735 0
-8739 -8733 0
-8739 -8736 0
8739 8733 8736 0
-8741 -6667 0
-8741 -6668 0
8741 6667 6668 0
-8742 -8740 0
-8742 -8741 0
8742 8740 8741 0
-8743 -8739 0
-8743 8742 0
8743 8739 -8742 0
-8746 -8740 0
-8746 -8743 0
8746 8740 8743 0
-8748 -6668 0
-8748 -6669 0
8748 6668 6669 0
-8749 -8747 0
-8749 -8748 0
8749 8747 8748 0
-8750 -8746 0
-8750 8749 0
8750 8746 -8749 0
-8753 -8747 0
-8753 -8750 0
8753 8747 8750 0
-8755 -6669 0
-8755 -6670 0
8755 6669 6670 0
-8756 -8754 0
-8756 -8755 0
8756 8754 8755 0
-8757 -8753 0
-8757 8756 0
8757 8753 -8756 0
-8760 -8754 0
-8760 -8757 0
8760 8754 8757 0
-8762 -6670 0
-8762 -6671 0
8762 6670 6671 0
-8763 -8761 0
-8763 -8762 0
8763 8761 8762 0
-8764 -8760 0
-8764 8763 0
8764 8760 -8763 0
-8767 -8761 0
-8767 -8764 0
8767 8761 8764 0
-8769 -6671 0
-8769 -6672 0
8769 6671 6672 0
-8770 -8768 0
-8770 -8769 0
8770 8768 8769 0
-8771 -8767 0
-8771 8770 0
8771 8767 -8770 0
-8774 -8768 0
-8774 -8771 0
8774 8768 8771 0
-8776 -6672 0
-8776 -6673 0
8776 6672 6673 0
-8777 -8775 0
-8777 -8776 0
8777 8775 8776 0
-8778 -8774 0
-8778 8777 0
8778 8774 -8777 0
-8781 -8775 0
-8781 -8778 0
8781 8775 8778 0
-8783 -6673 0
-8783 -6674 0
8783 6673 6674 0
-8784 -8782 0
-8784 -8783 0
8784 8782 8783 0
-8785 -8781 0
-8785 8784 0
8785 8781 -8784 0
-8788 -8782 0
-8788 -8785 0
8788 8782 8785 0
-8790 -6674 0
-8790 -6675 0
8790 6674 6675 0
-8791 -8789 0
-8791 -8790 0
8791 8789 8790 0
-8792 -8788 0
-8792 8791 0
8792 8788 -8791 0
-8795 -8789 0
-8795 -8792 0
8795 8789 8792 0
-8797 -6675 0
-8797 -6676 0
8797 6675 6676 0
-8798 -8796 0
-8798 -8797 0
8798 8796 8797 0
-8799 -8795 0
-8799 8798 0
8799 8795 -8798 0
-8802 -8796 0
-8802 -8799 0
8802 8796 8799 0
-8804 -6676 0
-8804 -6677 0
8804 6676 6677 0
-8805 -8803 0
-8805 -8804 0
8805 8803 8804 0
-8806 -8802 0
-8806 8805 0
8806 8802 -8805 0
-8809 -8803 0
-8809 -8806 0
8809 8803 8806 0
-8811 -6677 0
-8811 -6678 0
8811 6677 6678 0
-8812 -8810 0
-8812 -8811 0
8812 8810 8811 0
-8813 -8809 0
-8813 8812 0
8813 8809 -8812 0
-8816 -8810 0
-8816 -8813 0
8816 8810 8813 0
-8818 -6678 0
-8818 -6679 0
8818 6678 6679 0
-8819 -8817 0
-8819 -8818 0
8819 8817 8818 0
-8820 -8816 0
-8820 8819 0
8820 8816 -8819 0
-8823 -8817 0
-8823 -8820 0
8823 8817 8820 0
-8825 -6679 0
-8825 -6680 0
8825 6679 6680 0
-8826 -8824 0
-8826 -8825 0
8826 8824 8825 0
-8827 -8823 0
-8827 8826 0
8827 8823 -8826 0
-8830 -8824 0
-8830 -8827 0
8830 8824 8827 0
-8832 -6680 0
-8832 -6681 0
8832 6680 6681 0
-8833 -8831 0
-8833 -8832 0
8833 8831 8832 0
-8834 -8830 0
-8834 8833 0
8834 8830 -8833 0
-8837 -8831 0
-8837 -8834 0
8837 8831 8834 0
-8839 -6681 0
-8839 -6682 0
8839 6681 6682 0
-8840 -8838 0
-8840 -8839 0
8840 8838 8839 0
-8841 -8837 0
-8841 8840 0
8841 8837 -8840 0
-8844 -8838 0
-8844 -8841 0
8844 8838 8841 0
-8846 -6682 0
-8846 -6683 0
8846 6682 6683 0
-8847 -8845 0
-8847 -8846 0
8847 8845 8846 0
-8848 -8844 0
-8848 8847 0
8848 8844 -8847 0
-8851 -8845 0
-8851 -8848 0
8851 8845 8848 0
-8853 -6683 0
-8853 -6684 0
8853 6683 6684 0
-8854 -8852 0
-8854 -8853 0
8854 8852 8853 0
-8855 -8851 0
-8855 8854 0
8855 8851 -8854 0
-8858 -8852 0
-8858 -8855 0
8858 8852 8855 0
-8860 -6684 0
-8860 -6685 0
8860 6684 6685 0
-8861 -8859 0
-8861 -8860 0
8861 8859 8860 0
-8862 -8858 0
-8862 8861 0
8862 8858 -8861 0
-8865 -8859 0
-8865 -8862 0
8865 8859 8862 0
-8867 -6685 0
-8867 -6686 0
8867 6685 6686 0
-8868 -8866 0
-8868 -8867 0
8868 8866 8867 0
-8869 -8865 0
-8869 8868 0
8869 8865 -8868 0
-8872 -8866 0
-8872 -8869 0
8872 8866 8869 0
-8874 -6686 0
-8874 -6687 0
8874 6686 6687 0
-8875 -8873 0
-8875 -8874 0
8875 8873 8874 0
-8876 -8872 0
-8876 8875 0
8876 8872 -8875 0
-8879 -8873 0
-8879 -8876 0
8879 8873 8876 0
-8881 -6687 0
-8881 -6688 0
8881 6687 6688 0
-8882 -8880 0
-8882 -8881 0
8882 8880 8881 0
-8883 -8879 0
-8883 8882 0
8883 8879 -8882 0
-8886 -8880 0
-8886 -8883 0
8886 8880 8883 0
-8888 -6688 0
-8888 -6689 0
8888 6688 6689 0
-8889 -8887 0
-8889 -8888 0
8889 8887 8888 0
-8890 -8886 0
-8890 8889 0
8890 8886 -8889 0
-8893 -8887 0
-8893 -8890 0
8893 8887 8890 0
-8895 -6689 0
-8895 -6690 0
8895 6689 6690 0
-8896 -8894 0
-8896 -8895 0
8896 8894 8895 0
-8897 -8893 0
-8897 8896 0
8897 8893 -8896 0
-8900 -8894 0
-8900 -8897 0
8900 8894 8897 0
-8902 -6690 0
-8902 -6691 0
8902 6690 6691 0
-8903 -8901 0
-8903 -8902 0
8903 8901 8902 0
-8904 -8900 0
-8904 8903 0
8904 8900 -8903 0
-8907 -8901 0
-8907 -8904 0
8907 8901 8904 0
-8909 -6691 0
-8909 -6692 0
8909 6691 6692 0
-8910 -8908 0
-8910 -8909 0
8910 8908 8909 0
-8911 -8907 0
-8911 8910 0
8911 8907 -8910 0
-8914 -8908 0
-8914 -8911 0
8914 8908 8911 0
-8916 -6692 0
-8916 -6693 0
8916 6692 6693 0
-8917 -8915 0
-8917 -8916 0
8917 8915 8916 0
-8918 -8914 0
-8918 8917 0
8918 8914 -8917 0
-8921 -8915 0
-8921 -8918 0
8921 8915 8918 0
-8923 -6693 0
-8923 -6694 0
8923 6693 6694 0
-8924 -8922 0
-8924 -8923 0
8924 8922 8923 0
-8925 -8921 0
-8925 8924 0
8925 8921 -8924 0
-8928 -8922 0
-8928 -8925 0
8928 8922 8925 0
-8930 -6694 0
-8930 -6695 0
8930 6694 6695 0
-8931 -8929 0
-8931 -8930 0
8931 8929 8930 0
-8932 -8928 0
-8932 8931 0
8932 8928 -8931 0
-8935 -8929 0
-8935 -8932 0
8935 8929 8932 0
-8937 -6695 0
-8937 -6696 0
8937 6695 6696 0
-8938 -8936 0
-8938 -8937 0
8938 8936 8937 0
-8939 -8935 0
-8939 8938 0
8939 8935 -8938 0
-8942 -8936 0
-8942 -8939 0
8942 8936 8939 0
-8943 6696 0
-8943 6697 0
8943 -6696 -6697 0
-8944 -6696 0
-8944 -6697 0
8944 6696 6697 0
-8945 -8943 0
-8945 -8944 0
8945 8943 8944 0
-8946 -8942 0
-8946 8945 0
8946 8942 -8945 0
-8947 8942 0
-8947 -8945 0
8947 -8942 8945 0
-8948 -8946 0
-8948 -8947 0
8948 8946 8947 0
-8940 8935 0
-8940 -8938 0
8940 -8935 8938 0
-8941 -8939 0
-8941 -8940 0
8941 8939 8940 0
-8933 8928 0
-8933 -8931 0
8933 -8928 8931 0
-8934 -8932 0
-8934 -8933 0
8934 8932 8933 0
-8926 8921 0
-8926 -8924 0
8926 -8921 8924 0
-8927 -8925 0
-8927 -8926 0
8927 8925 8926 0
-8919 8914 0
-8919 -8917 0
8919 -8914 8917 0
-8920 -8918 0
-8920 -8919 0
8920 8918 8919 0
-8912 8907 0
-8912 -8910 0
8912 -8907 8910 0
-8913 -8911 0
-8913 -8912 0
8913 8911 8912 0
-8905 8900 0
-8905 -8903 0
8905 -8900 8903 0
-8906 -8904 0
-8906 -8905 0
8906 8904 8905 0
-8898 8893 0
-8898 -8896 0
8898 -8893 8896 0
-8899 -8897 0
-8899 -8898 0
8899 8897 8898 0
-8891 8886 0
-8891 -8889 0
8891 -8886 8889 0
-8892 -8890 0
-8892 -8891 0
8892 8890 8891 0
-8884 8879 0
-8884 -8882 0
8884 -8879 8882 0
-8885 -8883 0
-8885 -8884 0
8885 8883 8884 0
-8877 8872 0
-8877 -8875 0
8877 -8872 8875 0
-8878 -8876 0
-8878 -8877 0
8878 8876 8877 0
-8870 8865 0
-8870 -8868 0
8870 -8865 8868 0
-8871 -8869 0
-8871 -8870 0
8871 8869 8870 0
-8863 8858 0
-8863 -8861 0
8863 -8858 8861 0
-8864 -8862 0
-8864 -8863 0
8864 8862 8863 0
-8856 8851 0
-8856 -8854 0
8856 -8851 8854 0
-8857 -8855 0
-8857 -8856 0
8857 8855 8856 0
-8849 8844 0
-8849 -8847 0
8849 -8844 8847 0
-8850 -8848 0
-8850 -8849 0
8850 8848 8849 0
-8842 8837 0
-8842 -8840 0
8842 -8837 8840 0
-8843 -8841 0
-8843 -8842 0
8843 8841 8842 0
-8835 8830 0
-8835 -8833 0
8835 -8830 8833 0
-8836 -8834 0
-8836 -8835 0
8836 8834 8835 0
-8828 8823 0
-8828 -8826 0
8828 -8823 8826 0
-8829 -8827 0
-8829 -8828 0
8829 8827 8828 0
-8821 8816 0
-8821 -8819 0
8821 -8816 8819 0
-8822 -8820 0
-8822 -8821 0
8822 8820 8821 0
-8814 8809 0
-8814 -8812 0
8814 -8809 8812 0
-8815 -8813 0
-8815 -8814 0
8815 8813 8814 0
-8807 8802 0
-8807 -8805 0
8807 -8802 8805 0
-8808 -8806 0
-8808 -8807 0
8808 8806 8807 0
-8800 8795 0
-8800 -8798 0
8800 -8795 8798 0
-8801 -8799 0
-8801 -8800 0
8801 8799 8800 0
-8793 8788 0
-8793 -8791 0
8793 -8788 8791 0
-8794 -8792 0
-8794 -8793 0
8794 8792 8793 0
-8786 8781 0
-8786 -8784 0
8786 -8781 8784 0
-8787 -8785 0
-8787 -8786 0
8787 8785 8786 0
-8779 8774 0
-8779 -8777 0
8779 -8774 8777 0
-8780 -8778 0
-8780 -8779 0
8780 8778 8779 0
-8772 8767 0
-8772 -8770 0
8772 -8767 8770 0
-8773 -8771 0
-8773 -8772 0
8773 8771 8772 0
-8765 8760 0
-8765 -8763 0
8765 -8760 8763 0
-8766 -8764 0
-8766 -8765 0
8766 8764 8765 0
-8758 8753 0
-8758 -8756 0
8758 -8753 8756 0
-8759 -8757 0
-8759 -8758 0
8759 8757 8758 0
-8751 8746 0
-8751 -8749 0
8751 -8746 8749 0
-8752 -8750 0
-8752 -8751 0
8752 8750 8751 0
-8744 8739 0
-8744 -8742 0
8744 -8739 8742 0
-8745 -8743 0
-8745 -8744 0
8745 8743 8744 0
-8737 8732 0
-8737 -8735 0
8737 -8732 8735 0
-8738 -8736 0
-8738 -8737 0
8738 8736 8737 0
-8730 8725 0
-8730 -8728 0
8730 -8725 8728 0
-8731 -8729 0
-8731 -8730 0
8731 8729 8730 0
-8723 8718 0
-8723 -8721 0
8723 -8718 8721 0
-8724 -8722 0
-8724 -8723 0
8724 8722 8723 0
-8716 8711 0
-8716 -8714 0
8716 -8711 8714 0
-8717 -8715 0
-8717 -8716 0
8717 8715 8716 0
-8709 8704 0
-8709 -8707 0
8709 -8704 8707 0
-8710 -8708 0
-8710 -8709 0
8710 8708 8709 0
-8702 8697 0
-8702 -8700 0
8702 -8697 8700 0
-8703 -8701 0
-8703 -8702 0
8703 8701 8702 0
-8695 8690 0
-8695 -8693 0
8695 -8690 8693 0
-8696 -8694 0
-8696 -8695 0
8696 8694 8695 0
-8688 8683 0
-8688 -8686 0
8688 -8683 8686 0
-8689 -8687 0
-8689 -8688 0
8689 8687 8688 0
-8681 8676 0
-8681 -8679 0
8681 -8676 8679 0
-8682 -8680 0
-8682 -8681 0
8682 8680 8681 0
-8674 8669 0
-8674 -8672 0
8674 -8669 8672 0
-8675 -8673 0
-8675 -8674 0
8675 8673 8674 0
-8667 8662 0
-8667 -8665 0
8667 -8662 8665 0
-8668 -8666 0
-8668 -8667 0
8668 8666 8667 0
-8660 8655 0
-8660 -8658 0
8660 -8655 8658 0
-8661 -8659 0
-8661 -8660 0
8661 8659 8660 0
-8653 8648 0
-8653 -8651 0
8653 -8648 8651 0
-8654 -8652 0
-8654 -8653 0
8654 8652 8653 0
-8646 8641 0
-8646 -8644 0
8646 -8641 8644 0
-8647 -8645 0
-8647 -8646 0
8647 8645 8646 0
-8639 8634 0
-8639 -8637 0
8639 -8634 8637 0
-8640 -8638 0
-8640 -8639 0
8640 8638 8639 0
-8632 8627 0
-8632 -8630 0
8632 -8627 8630 0
-8633 -8631 0
-8633 -8632 0
8633 8631 8632 0
-8625 8620 0
-8625 -8623 0
8625 -8620 8623 0
-8626 -8624 0
-8626 -8625 0
8626 8624 8625 0
-8618 8613 0
-8618 -8616 0
8618 -8613 8616 0
-8619 -8617 0
-8619 -8618 0
8619 8617 8618 0
-8611 8606 0
-8611 -8609 0
8611 -8606 8609 0
-8612 -8610 0
-8612 -8611 0
8612 8610 8611 0
-8604 8599 0
-8604 -8602 0
8604 -8599 8602 0
-8605 -8603 0
-8605 -8604 0
8605 8603 8604 0
-8597 8592 0
-8597 -8595 0
8597 -8592 8595 0
-8598 -8596 0
-8598 -8597 0
8598 8596 8597 0
-8590 8585 0
-8590 -8588 0
8590 -8585 8588 0
-8591 -8589 0
-8591 -8590 0
8591 8589 8590 0
-8583 8578 0
-8583 -8581 0
8583 -8578 8581 0
-8584 -8582 0
-8584 -8583 0
8584 8582 8583 0
-8576 8571 0
-8576 -8574 0
8576 -8571 8574 0
-8577 -8575 0
-8577 -8576 0
8577 8575 8576 0
-8569 8564 0
-8569 -8567 0
8569 -8564 8567 0
-8570 -8568 0
-8570 -8569 0
8570 8568 8569 0
-8562 8557 0
-8562 -8560 0
8562 -8557 8560 0
-8563 -8561 0
-8563 -8562 0
8563 8561 8562 0
-8555 8550 0
-8555 -8553 0
8555 -8550 8553 0
-8556 -8554 0
-8556 -8555 0
8556 8554 8555 0
-8548 8543 0
-8548 -8546 0
8548 -8543 8546 0
-8549 -8547 0
-8549 -8548 0
8549 8547 8548 0
-8541 8536 0
-8541 -8539 0
8541 -8536 8539 0
-8542 -8540 0
-8542 -8541 0
8542 8540 8541 0
-8534 8529 0
-8534 -8532 0
8534 -8529 8532 0
-8535 -8533 0
-8535 -8534 0
8535 8533 8534 0
-8527 8522 0
-8527 -8525 0
8527 -8522 8525 0
-8528 -8526 0
-8528 -8527 0
8528 8526 8527 0
-8520 -8513 0
-8520 -8518 0
8520 8513 8518 0
-8521 -8519 0
-8521 -8520 0
8521 8519 8520 0
-8514 -6634 0
-8514 -6635 0
8514 6634 6635 0
-8515 -8513 0
-8515 -8514 0
8515 8513 8514 0
-8950 6634 0
-8950 8515 0
8950 -6634 -8515 0
-8953 8521 0
-8953 8950 0
8953 -8521 -8950 0
-8956 8528 0
-8956 8953 0
8956 -8528 -8953 0
-8959 8535 0
-8959 8956 0
8959 -8535 -8956 0
-8962 8542 0
-8962 8959 0
8962 -8542 -8959 0
-8965 8549 0
-8965 8962 0
8965 -8549 -8962 0
-8968 8556 0
-8968 8965 0
8968 -8556 -8965 0
-8971 8563 0
-8971 8968 0
8971 -8563 -8968 0
-8974 8570 0
-8974 8971 0
8974 -8570 -8971 0
-8977 8577 0
-8977 8974 0
8977 -8577 -8974 0
-8980 8584 0
-8980 8977 0
8980 -8584 -8977 0
-8983 8591 0
-8983 8980 0
8983 -8591 -8980 0
-8986 8598 0
-8986 8983 0
8986 -8598 -8983 0
-8989 8605 0
-8989 8986 0
8989 -8605 -8986 0
-8992 8612 0
-8992 8989 0
8992 -8612 -8989 0
-8995 8619 0
-8995 8992 0
8995 -8619 -8992 0
-8998 8626 0
-8998 8995 0
8998 -8626 -8995 0
-9001 8633 0
-9001 8998 0
9001 -8633 -8998 0
-9004 8640 0
-9004 9001 0
9004 -8640 -9001 0
-9007 8647 0
-9007 9004 0
9007 -8647 -9004 0
-9010 8654 0
-9010 9007 0
9010 -8654 -9007 0
-9013 8661 0
-9013 9010 0
9013 -8661 -9010 0
-9016 8668 0
-9016 9013 0
9016 -8668 -9013 0
-9019 8675 0
-9019 9016 0
9019 -8675 -9016 0
-9022 8682 0
-9022 9019 0
9022 -8682 -9019 0
-9025 8689 0
-9025 9022 0
9025 -8689 -9022 0
-9028 8696 0
-9028 9025 0
9028 -8696 -9025 0
-9031 8703 0
-9031 9028 0
9031 -8703 -9028 0
-9034 8710 0
-9034 9031 0
9034 -8710 -9031 0
-9037 8717 0
-9037 9034 0
9037 -8717 -9034 0
-9040 8724 0
-9040 9037 0
9040 -8724 -9037 0
-9043 8731 0
-9043 9040 0
9043 -8731 -9040 0
-9046 8738 0
-9046 9043 0
9046 -8738 -9043 0
-9049 8745 0
-9049 9046 0
9049 -8745 -9046 0
-9052 8752 0
-9052 9049 0
9052 -8752 -9049 0
-9055 8759 0
-9055 9052 0
9055 -8759 -9052 0
-9058 8766 0
-9058 9055 0
9058 -8766 -9055 0
-9061 8773 0
-9061 9058 0
9061 -8773 -9058 0
-9064 8780 0
-9064 9061 0
9064 -8780 -9061 0
-9067 8787 0
-9067 9064 0
9067 -8787 -9064 0
-9070 8794 0
-9070 9067 0
9070 -8794 -9067 0
-9073 8801 0
-9073 9070 0
9073 -8801 -9070 0
-9076 8808 0
-9076 9073 0
9076 -8808 -9073 0
-9079 8815 0
-9079 9076 0
9079 -8815 -9076 0
-9082 8822 0
-9082 9079 0
9082 -8822 -9079 0
-9085 8829 0
-9085 9082 0
9085 -8829 -9082 0
-9088 8836 0
-9088 9085 0
9088 -8836 -9085 0
-9091 8843 0
-9091 9088 0
9091 -8843 -9088 0
-9094 8850 0
-9094 9091 0
9094 -8850 -9091 0
-9097 8857 0
-9097 9094 0
9097 -8857 -9094 0
-9100 8864 0
-9100 9097 0
9100 -8864 -9097 0
-9103 8871 0
-9103 9100 0
9103 -8871 -9100 0
-9106 8878 0
-9106 9103 0
9106 -8878 -9103 0
-9109 8885 0
-9109 9106 0
9109 -8885 -9106 0
-9112 8892 0
-9112 9109 0
9112 -8892 -9109 0
-9115 8899 0
-9115 9112 0
9115 -8899 -9112 0
-9118 8906 0
-9118 9115 0
9118 -8906 -9115 0
-9121 8913 0
-9121 9118 0
9121 -8913 -9118 0
-9124 8920 0
-9124 9121 0
9124 -8920 -9121 0
-9127 8927 0
-9127 9124 0
9127 -8927 -9124 0
-9130 8934 0
-9130 9127 0
9130 -8934 -9127 0
-9133 8941 0
-9133 9130 0
9133 -8941 -9130 0
-9136 8948 0
-9136 9133 0
9136 -8948 -9133 0
-9137 -8948 0
-9137 -9133 0
9137 8948 9133 0
-9138 -9136 0
-9138 -9137 0
9138 9136 9137 0
-9325 8511 0
-9325 -9138 0
9325 -8511 9138 0
-9326 -8511 0
-9326 9138 0
9326 8511 -9138 0
-9327 -9325 0
-9327 -9326 0
9327 9325 9326 0
8510 -17052 0
-8510 17052 0
-9134 -8941 0
-9134 -9130 0
9134 8941 9130 0
-9135 -9133 0
-9135 -9134 0
9135 9133 9134 0
-9322 8510 0
-9322 -9135 0
9322 -8510 9135 0
-9323 -8510 0
-9323 9135 0
9323 8510 -9135 0
-9324 -9322 0
-9324 -9323 0
9324 9322 9323 0
8509 -17051 0
-8509 17051 0
-9131 -8934 0
-9131 -9127 0
9131 8934 9127 0
-9132 -9130 0
-9132 -9131 0
9132 9130 9131 0
-9319 8509 0
-9319 -9132 0
9319 -8509 9132 0
-9320 -8509 0
-9320 9132 0
9320 8509 -9132 0
-9321 -9319 0
-9321 -9320 0
9321 9319 9320 0
8508 -17050 0
-8508 17050 0
-9128 -8927 0
-9128 -9124 0
9128 8927 9124 0
-9129 -9127 0
-9129 -9128 0
9129 9127 9128 0
-9316 8508 0
-9316 -9129 0
9316 -8508 9129 0
-9317 -8508 0
-9317 9129 0
9317 8508 -9129 0
-9318 -9316 0
-9318 -9317 0
9318 9316 9317 0
8507 -17049 0
-8507 17049 0
-9125 -8920 0
-9125 -9121 0
9125 8920 9121 0
-9126 -9124 0
-9126 -9125 0
9126 9124 9125 0
-9313 8507 0
-9313 -9126 0
9313 -8507 9126 0
-9314 -8507 0
-9314 9126 0
9314 8507 -9126 0
-9315 -9313 0
-9315 -9314 0
9315 9313 9314 0
8506 -17048 0
-8506 17048 0
-9122 -8913 0
-9122 -9118 0
9122 8913 9118 0
-9123 -9121 0
-9123 -9122 0
9123 9121 9122 0
-9310 8506 0
-9310 -9123 0
9310 -8506 9123 0
-9311 -8506 0
-9311 9123 0
9311 8506 -9123 0
-9312 -9310 0
-9312 -9311 0
9312 9310 9311 0
8505 -17047 0
-8505 17047 0
-9119 -8906 0
-9119 -9115 0
9119 8906 9115 0
-9120 -9118 0
-9120 -9119 0
9120 9118 9119 0
-9307 8505 0
-9307 -9120 0
9307 -8505 9120 0
-9308 -8505 0
-9308 9120 0
9308 8505 -9120 0
-9309 -9307 0
-9309 -9308 0
9309 9307 9308 0
8504 -17046 0
-8504 17046 0
-9116 -8899 0
-9116 -9112 0
9116 8899 9112 0
-9117 -9115 0
-9117 -9116 0
9117 9115 9116 0
-9304 8504 0
-9304 -9117 0
9304 -8504 9117 0
-9305 -8504 0
-9305 9117 0
9305 8504 -9117 0
-9306 -9304 0
-9306 -9305 0
9306 9304 9305 0
8503 -17045 0
-8503 17045 0
-9113 -8892 0
-9113 -9109 0
9113 8892 9109 0
-9114 -9112 0
-9114 -9113 0
9114 9112 9113 0
-9301 8503 0
-9301 -9114 0
9301 -8503 9114 0
-9302 -8503 0
-9302 9114 0
9302 8503 -9114 0
-9303 -9301 0
-9303 -9302 0
9303 9301 9302 0
8502 -17044 0
-8502 17044 0
-9110 -8885 0
-9110 -9106 0
9110 8885 9106 0
-9111 -9109 0
-9111 -9110 0
9111 9109 9110 0
-9298 8502 0
-9298 -9111 0
9298 -8502 9111 0
-9299 -8502 0
-9299 9111 0
9299 8502 -9111 0
-9300 -9298 0
-9300 -9299 0
9300 9298 9299 0
8501 -17043 0
-8501 17043 0
-9107 -8878 0
-9107 -9103 0
9107 8878 9103 0
-9108 -9106 0
-9108 -9107 0
9108 9106 9107 0
-9295 8501 0
-9295 -9108 0
9295 -8501 9108 0
-9296 -8501 0
-9296 9108 0
9296 8501 -9108 0
-9297 -9295 0
-9297 -9296 0
9297 9295 9296 0
8500 -17042 0
-8500 17042 0
-9104 -8871 0
-9104 -9100 0
9104 8871 9100 0
-9105 -9103 0
-9105 -9104 0
9105 9103 9104 0
-9292 8500 0
-9292 -9105 0
9292 -8500 9105 0
-9293 -8500 0
-9293 9105 0
9293 8500 -9105 0
-9294 -9292 0
-9294 -9293 0
9294 9292 9293 0
8499 -17041 0
-8499 17041 0
-9101 -8864 0
-9101 -9097 0
9101 8864 9097 0
-9102 -9100 0
-9102 -9101 0
9102 9100 9101 0
-9289 8499 0
-9289 -9102 0
9289 -8499 9102 0
-9290 -8499 0
-9290 9102 0
9290 8499 -9102 0
-9291 -9289 0
-9291 -9290 0
9291 9289 9290 0
8498 -17040 0
-8498 17040 0
-9098 -8857 0
-9098 -9094 0
9098 8857 9094 0
-9099 -9097 0
-9099 -9098 0
9099 9097 9098 0
-9286 8498 0
-9286 -9099 0
9286 -8498 9099 0
-9287 -8498 0
-9287 9099 0
9287 8498 -9099 0
-9288 -9286 0
-9288 -9287 0
9288 9286 9287 0
8497 -17039 0
-8497 17039 0
-9095 -8850 0
-9095 -9091 0
9095 8850 9091 0
-9096 -9094 0
-9096 -9095 0
9096 9094 9095 0
-9283 8497 0
-9283 -9096 0
9283 -8497 9096 0
-9284 -8497 0
-9284 9096 0
9284 8497 -9096 0
-9285 -9283 0
-9285 -9284 0
9285 9283 9284 0
8496 -17038 0
-8496 17038 0
-9092 -8843 0
-9092 -9088 0
9092 8843 9088 0
-9093 -9091 0
-9093 -9092 0
9093 9091 9092 0
-9280 8496 0
-9280 -9093 0
9280 -8496 9093 0
-9281 -8496 0
-9281 9093 0
9281 8496 -9093 0
-9282 -9280 0
-9282 -9281 0
9282 9280 9281 0
8495 -17037 0
-8495 17037 0
-9089 -8836 0
-9089 -9085 0
9089 8836 9085 0
-9090 -9088 0
-9090 -9089 0
9090 9088 9089 0
-9277 8495 0
-9277 -9090 0
9277 -8495 9090 0
-9278 -8495 0
-9278 9090 0
9278 8495 -9090 0
-9279 -9277 0
-9279 -9278 0
9279 9277 9278 0
8494 -17036 0
-8494 17036 0
-9086 -8829 0
-9086 -9082 0
9086 8829 9082 0
-9087 -9085 0
-9087 -9086 0
9087 9085 9086 0
-9274 8494 0
-9274 -9087 0
9274 -8494 9087 0
-9275 -8494 0
-9275 9087 0
9275 8494 -9087 0
-9276 -9274 0
-9276 -9275 0
9276 9274 9275 0
8493 -17035 0
-8493 17035 0
-9083 -8822 0
-9083 -9079 0
9083 8822 9079 0
-9084 -9082 0
-9084 -9083 0
9084 9082 9083 0
-9271 8493 0
-9271 -9084 0
9271 -8493 9084 0
-9272 -8493 0
-9272 9084 0
9272 8493 -9084 0
-9273 -9271 0
-9273 -9272 0
9273 9271 9272 0
8492 -17034 0
-8492 17034 0
-9080 -8815 0
-9080 -9076 0
9080 8815 9076 0
-9081 -9079 0
-9081 -9080 0
9081 9079 9080 0
-9268 8492 0
-9268 -9081 0
9268 -8492 9081 0
-9269 -8492 0
-9269 9081 0
9269 8492 -9081 0
-9270 -9268 0
-9270 -9269 0
9270 9268 9269 0
8491 -17033 0
-8491 17033 0
-9077 -8808 0
-9077 -9073 0
9077 8808 9073 0
-9078 -9076 0
-9078 -9077 0
9078 9076 9077 0
-9265 8491 0
-9265 -9078 0
9265 -8491 9078 0
-9266 -8491 0
-9266 9078 0
9266 8491 -9078 0
-9267 -9265 0
-9267 -9266 0
9267 9265 9266 0
8490 -17032 0
-8490 17032 0
-9074 -8801 0
-9074 -9070 0
9074 8801 9070 0
-9075 -9073 0
-9075 -9074 0
9075 9073 9074 0
-9262 8490 0
-9262 -9075 0
9262 -8490 9075 0
-9263 -8490 0
-9263 9075 0
9263 8490 -9075 0
-9264 -9262 0
-9264 -9263 0
9264 9262 9263 0
8489 -17031 0
-8489 17031 0
-9071 -8794 0
-9071 -9067 0
9071 8794 9067 0
-9072 -9070 0
-9072 -9071 0
9072 9070 9071 0
-9259 8489 0
-9259 -9072 0
9259 -8489 9072 0
-9260 -8489 0
-9260 9072 0
9260 8489 -9072 0
-9261 -9259 0
-9261 -9260 0
9261 9259 9260 0
8488 -17030 0
-8488 17030 0
-9068 -8787 0
-9068 -9064 0
9068 8787 9064 0
-9069 -9067 0
-9069 -9068 0
9069 9067 9068 0
-9256 8488 0
-9256 -9069 0
9256 -8488 9069 0
-9257 -8488 0
-9257 9069 0
9257 8488 -9069 0
-9258 -9256 0
-9258 -9257 0
9258 9256 9257 0
8487 -17029 0
-8487 17029 0
-9065 -8780 0
-9065 -9061 0
9065 8780 9061 0
-9066 -9064 0
-9066 -9065 0
9066 9064 9065 0
-9253 8487 0
-9253 -9066 0
9253 -8487 9066 0
-9254 -8487 0
-9254 9066 0
9254 8487 -9066 0
-9255 -9253 0
-9255 -9254 0
9255 9253 9254 0
8486 -17028 0
-8486 17028 0
-9062 -8773 0
-9062 -9058 0
9062 8773 9058 0
-9063 -9061 0
-9063 -9062 0
9063 9061 9062 0
-9250 8486 0
-9250 -9063 0
9250 -8486 9063 0
-9251 -8486 0
-9251 9063 0
9251 8486 -9063 0
-9252 -9250 0
-9252 -9251 0
9252 9250 9251 0
8485 -17027 0
-8485 17027 0
-9059 -8766 0
-9059 -9055 0
9059 8766 9055 0
-9060 -9058 0
-9060 -9059 0
9060 9058 9059 0
-9247 8485 0
-9247 -9060 0
9247 -8485 9060 0
-9248 -8485 0
-9248 9060 0
9248 8485 -9060 0
-9249 -9247 0
-9249 -9248 0
9249 9247 9248 0
8484 -17026 0
-8484 17026 0
-9056 -8759 0
-9056 -9052 0
9056 8759 9052 0
-9057 -9055 0
-9057 -9056 0
9057 9055 9056 0
-9244 8484 0
-9244 -9057 0
9244 -8484 9057 0
-9245 -8484 0
-9245 9057 0
9245 8484 -9057 0
-9246 -9244 0
-9246 -9245 0
9246 9244 9245 0
8483 -17025 0
-8483 17025 0
-9053 -8752 0
-9053 -9049 0
9053 8752 9049 0
-9054 -9052 0
-9054 -9053 0
9054 9052 9053 0
-9241 8483 0
-9241 -9054 0
9241 -8483 9054 0
-9242 -8483 0
-9242 9054 0
9242 8483 -9054 0
-9243 -9241 0
-9243 -9242 0
9243 9241 9242 0
8482 -17024 0
-8482 17024 0
-9050 -8745 0
-9050 -9046 0
9050 8745 9046 0
-9051 -9049 0
-9051 -9050 0
9051 9049 9050 0
-9238 8482 0
-9238 -9051 0
9238 -8482 9051 0
-9239 -8482 0
-9239 9051 0
9239 8482 -9051 0
-9240 -9238 0
-9240 -9239 0
9240 9238 9239 0
8481 -17023 0
-8481 17023 0
-9047 -8738 0
-9047 -9043 0
9047 8738 9043 0
-9048 -9046 0
-9048 -9047 0
9048 9046 9047 0
-9235 8481 0
-9235 -9048 0
9235 -8481 9048 0
-9236 -8481 0
-9236 9048 0
9236 8481 -9048 0
-9237 -9235 0
-9237 -9236 0
9237 9235 9236 0
8480 -17022 0
-8480 17022 0
-9044 -8731 0
-9044 -9040 0
9044 8731 9040 0
-9045 -9043 0
-9045 -9044 0
9045 9043 9044 0
-9232 8480 0
-9232 -9045 0
9232 -8480 9045 0
-9233 -8480 0
-9233 9045 0
9233 8480 -9045 0
-9234 -9232 0
-9234 -9233 0
9234 9232 9233 0
8479 -17021 0
-8479 17021 0
-9041 -8724 0
-9041 -9037 0
9041 8724 9037 0
-9042 -9040 0
-9042 -9041 0
9042 9040 9041 0
-9229 8479 0
-9229 -9042 0
9229 -8479 9042 0
-9230 -8479 0
-9230 9042 0
9230 8479 -9042 0
-9231 -9229 0
-9231 -9230 0
9231 9229 9230 0
8478 -17020 0
-8478 17020 0
-9038 -8717 0
-9038 -9034 0
9038 8717 9034 0
-9039 -9037 0
-9039 -9038 0
9039 9037 9038 0
-9226 8478 0
-9226 -9039 0
9226 -8478 9039 0
-9227 -8478 0
-9227 9039 0
9227 8478 -9039 0
-9228 -9226 0
-9228 -9227 0
9228 9226 9227 0
8477 -17019 0
-8477 17019 0
-9035 -8710 0
-9035 -9031 0
9035 8710 9031 0
-9036 -9034 0
-9036 -9035 0
9036 9034 9035 0
-9223 8477 0
-9223 -9036 0
9223 -8477 9036 0
-9224 -8477 0
-9224 9036 0
9224 8477 -9036 0
-9225 -9223 0
-9225 -9224 0
9225 9223 9224 0
8476 -17018 0
-8476 17018 0
-9032 -8703 0
-9032 -9028 0
9032 8703 9028 0
-9033 -9031 0
-9033 -9032 0
9033 9031 9032 0
-9220 8476 0
-9220 -9033 0
9220 -8476 9033 0
-9221 -8476 0
-9221 9033 0
9221 8476 -9033 0
-9222 -9220 0
-9222 -9221 0
9222 9220 9221 0
8475 -17017 0
-8475 17017 0
-9029 -8696 0
-9029 -9025 0
9029 8696 9025 0
-9030 -9028 0
-9030 -9029 0
9030 9028 9029 0
-9217 8475 0
-9217 -9030 0
9217 -8475 9030 0
-9218 -8475 0
-9218 9030 0
9218 8475 -9030 0
-9219 -9217 0
-9219 -9218 0
9219 9217 9218 0
8474 -17016 0
-8474 17016 0
-9026 -8689 0
-9026 -9022 0
9026 8689 9022 0
-9027 -9025 0
-9027 -9026 0
9027 9025 9026 0
-9214 8474 0
-9214 -9027 0
9214 -8474 9027 0
-9215 -8474 0
-9215 9027 0
9215 8474 -9027 0
-9216 -9214 0
-9216 -9215 0
9216 9214 9215 0
8473 -17015 0
-8473 17015 0
-9023 -8682 0
-9023 -9019 0
9023 8682 9019 0
-9024 -9022 0
-9024 -9023 0
9024 9022 9023 0
-9211 8473 0
-9211 -9024 0
9211 -8473 9024 0
-9212 -8473 0
-9212 9024 0
9212 8473 -9024 0
-9213 -9211 0
-9213 -9212 0
9213 9211 9212 0
8472 -17014 0
-8472 17014 0
-9020 -8675 0
-9020 -9016 0
9020 8675 9016 0
-9021 -9019 0
-9021 -9020 0
9021 9019 9020 0
-9208 8472 0
-9208 -9021 0
9208 -8472 9021 0
-9209 -8472 0
-9209 9021 0
9209 8472 -9021 0
-9210 -9208 0
-9210 -9209 0
9210 9208 9209 0
8471 -17013 0
-8471 17013 0
-9017 -8668 0
-9017 -9013 0
9017 8668 9013 0
-9018 -9016 0
-9018 -9017 0
9018 9016 9017 0
-9205 8471 0
-9205 -9018 0
9205 -8471 9018 0
-9206 -8471 0
-9206 9018 0
9206 8471 -9018 0
-9207 -9205 0
-9207 -9206 0
9207 9205 9206 0
8470 -17012 0
-8470 17012 0
-9014 -8661 0
-9014 -9010 0
9014 8661 9010 0
-9015 -9013 0
-9015 -9014 0
9015 9013 9014 0
-9202 8470 0
-9202 -9015 0
9202 -8470 9015 0
-9203 -8470 0
-9203 9015 0
9203 8470 -9015 0
-9204 -9202 0
-9204 -9203 0
9204 9202 9203 0
8469 -17011 0
-8469 17011 0
-9011 -8654 0
-9011 -9007 0
9011 8654 9007 0
-9012 -9010 0
-9012 -9011 0
9012 9010 9011 0
-9199 8469 0
-9199 -9012 0
9199 -8469 9012 0
-9200 -8469 0
-9200 9012 0
9200 8469 -9012 0
-9201 -9199 0
-9201 -9200 0
9201 9199 9200 0
8468 -17010 0
-8468 17010 0
-9008 -8647 0
-9008 -9004 0
9008 8647 9004 0
-9009 -9007 0
-9009 -9008 0
9009 9007 9008 0
-9196 8468 0
-9196 -9009 0
9196 -8468 9009 0
-9197 -8468 0
-9197 9009 0
9197 8468 -9009 0
-9198 -9196 0
-9198 -9197 0
9198 9196 9197 0
8467 -17009 0
-8467 17009 0
-9005 -8640 0
-9005 -9001 0
9005 8640 9001 0
-9006 -9004 0
-9006 -9005 0
9006 9004 9005 0
-9193 8467 0
-9193 -9006 0
9193 -8467 9006 0
-9194 -8467 0
-9194 9006 0
9194 8467 -9006 0
-9195 -9193 0
-9195 -9194 0
9195 9193 9194 0
8466 -17008 0
-8466 17008 0
-9002 -8633 0
-9002 -8998 0
9002 8633 8998 0
-9003 -9001 0
-9003 -9002 0
9003 9001 9002 0
-9190 8466 0
-9190 -9003 0
9190 -8466 9003 0
-9191 -8466 0
-9191 9003 0
9191 8466 -9003 0
-9192 -9190 0
-9192 -9191 0
9192 9190 9191 0
8465 -17007 0
-8465 17007 0
-8999 -8626 0
-8999 -8995 0
8999 8626 8995 0
-9000 -8998 0
-9000 -8999 0
9000 8998 8999 0
-9187 8465 0
-9187 -9000 0
9187 -8465 9000 0
-9188 -8465 0
-9188 9000 0
9188 8465 -9000 0
-9189 -9187 0
-9189 -9188 0
9189 9187 9188 0
8464 -17006 0
-8464 17006 0
-8996 -8619 0
-8996 -8992 0
8996 8619 8992 0
-8997 -8995 0
-8997 -8996 0
8997 8995 8996 0
-9184 8464 0
-9184 -8997 0
9184 -8464 8997 0
-9185 -8464 0
-9185 8997 0
9185 8464 -8997 0
-9186 -9184 0
-9186 -9185 0
9186 9184 9185 0
8463 -17005 0
-8463 17005 0
-8993 -8612 0
-8993 -8989 0
8993 8612 8989 0
-8994 -8992 0
-8994 -8993 0
8994 8992 8993 0
-9181 8463 0
-9181 -8994 0
9181 -8463 8994 0
-9182 -8463 0
-9182 8994 0
9182 8463 -8994 0
-9183 -9181 0
-9183 -9182 0
9183 9181 9182 0
8462 -17004 0
-8462 17004 0
-8990 -8605 0
-8990 -8986 0
8990 8605 8986 0
-8991 -8989 0
-8991 -8990 0
8991 8989 8990 0
-9178 8462 0
-9178 -8991 0
9178 -8462 8991 0
-9179 -8462 0
-9179 8991 0
9179 8462 -8991 0
-9180 -9178 0
-9180 -9179 0
9180 9178 9179 0
8461 -17003 0
-8461 17003 0
-8987 -8598 0
-8987 -8983 0
8987 8598 8983 0
-8988 -8986 0
-8988 -8987 0
8988 8986 8987 0
-9175 8461 0
-9175 -8988 0
9175 -8461 8988 0
-9176 -8461 0
-9176 8988 0
9176 8461 -8988 0
-9177 -9175 0
-9177 -9176 0
9177 9175 9176 0
8460 -17002 0
-8460 17002 0
-8984 -8591 0
-8984 -8980 0
8984 8591 8980 0
-8985 -8983 0
-8985 -8984 0
8985 8983 8984 0
-9172 8460 0
-9172 -8985 0
9172 -8460 8985 0
-9173 -8460 0
-9173 8985 0
9173 8460 -8985 0
-9174 -9172 0
-9174 -9173 0
9174 9172 9173 0
8459 -17001 0
-8459 17001 0
-8981 -8584 0
-8981 -8977 0
8981 8584 8977 0
-8982 -8980 0
-8982 -8981 0
8982 8980 8981 0
-9169 8459 0
-9169 -8982 0
9169 -8459 8982 0
-9170 -8459 0
-9170 8982 0
9170 8459 -8982 0
-9171 -9169 0
-9171 -9170 0
9171 9169 9170 0
8458 -17000 0
-8458 17000 0
-8978 -8577 0
-8978 -8974 0
8978 8577 8974 0
-8979 -8977 0
-8979 -8978 0
8979 8977 8978 0
-9166 8458 0
-9166 -8979 0
9166 -8458 8979 0
-9167 -8458 0
-9167 8979 0
9167 8458 -8979 0
-9168 -9166 0
-9168 -9167 0
9168 9166 9167 0
8457 -16999 0
-8457 16999 0
-8975 -8570 0
-8975 -8971 0
8975 8570 8971 0
-8976 -8974 0
-8976 -8975 0
8976 8974 8975 0
-9163 8457 0
-9163 -8976 0
9163 -8457 8976 0
-9164 -8457 0
-9164 8976 0
9164 8457 -8976 0
-9165 -9163 0
-9165 -9164 0
9165 9163 9164 0
8456 -16998 0
-8456 16998 0
-8972 -8563 0
-8972 -8968 0
8972 8563 8968 0
-8973 -8971 0
-8973 -8972 0
8973 8971 8972 0
-9160 8456 0
-9160 -8973 0
9160 -8456 8973 0
-9161 -8456 0
-9161 8973 0
9161 8456 -8973 0
-9162 -9160 0
-9162 -9161 0
9162 9160 9161 0
8455 -16997 0
-8455 16997 0
-8969 -8556 0
-8969 -8965 0
8969 8556 8965 0
-8970 -8968 0
-8970 -8969 0
8970 8968 8969 0
-9157 8455 0
-9157 -8970 0
9157 -8455 8970 0
-9158 -8455 0
-9158 8970 0
9158 8455 -8970 0
-9159 -9157 0
-9159 -9158 0
9159 9157 9158 0
8454 -16996 0
-8454 16996 0
-8966 -8549 0
-8966 -8962 0
8966 8549 8962 0
-8967 -8965 0
-8967 -8966 0
8967 8965 8966 0
-9154 8454 0
-9154 -8967 0
9154 -8454 8967 0
-9155 -8454 0
-9155 8967 0
9155 8454 -8967 0
-9156 -9154 0
-9156 -9155 0
9156 9154 9155 0
8453 -16995 0
-8453 16995 0
-8963 -8542 0
-8963 -8959 0
8963 8542 8959 0
-8964 -8962 0
-8964 -8963 0
8964 8962 8963 0
-9151 8453 0
-9151 -8964 0
9151 -8453 8964 0
-9152 -8453 0
-9152 8964 0
9152 8453 -8964 0
-9153 -9151 0
-9153 -9152 0
9153 9151 9152 0
8452 -16994 0
-8452 16994 0
-8960 -8535 0
-8960 -8956 0
8960 8535 8956 0
-8961 -8959 0
-8961 -8960 0
8961 8959 8960 0
-9148 8452 0
-9148 -8961 0
9148 -8452 8961 0
-9149 -8452 0
-9149 8961 0
9149 8452 -8961 0
-9150 -9148 0
-9150 -9149 0
9150 9148 9149 0
8451 -16993 0
-8451 16993 0
-8957 -8528 0
-8957 -8953 0
8957 8528 8953 0
-8958 -8956 0
-8958 -8957 0
8958 8956 8957 0
-9145 8451 0
-9145 -8958 0
9145 -8451 8958 0
-9146 -8451 0
-9146 8958 0
9146 8451 -8958 0
-9147 -9145 0
-9147 -9146 0
9147 9145 9146 0
8449 -16991 0
-8449 16991 0
-8951 -6634 0
-8951 -8515 0
8951 6634 8515 0
-8952 -8950 0
-8952 -8951 0
8952 8950 8951 0
-9139 8449 0
-9139 -8952 0
9139 -8449 8952 0
-9140 -8449 0
-9140 8952 0
9140 8449 -8952 0
-9141 -9139 0
-9141 -9140 0
9141 9139 9140 0
8450 -16992 0
-8450 16992 0
-8954 -8521 0
-8954 -8950 0
8954 8521 8950 0
-8955 -8953 0
-8955 -8954 0
8955 8953 8954 0
-9142 8450 0
-9142 -8955 0
9142 -8450 8955 0
-9143 -8450 0
-9143 8955 0
9143 8450 -8955 0
-9144 -9142 0
-9144 -9143 0
9144 9142 9143 0
-9328 9141 0
-9328 9144 0
9328 -9141 -9144 0
-9329 9147 0
-9329 9328 0
9329 -9147 -9328 0
-9330 9150 0
-9330 9329 0
9330 -9150 -9329 0
-9331 9153 0
-9331 9330 0
9331 -9153 -9330 0
-9332 9156 0
-9332 9331 0
9332 -9156 -9331 0
-9333 9159 0
-9333 9332 0
9333 -9159 -9332 0
-9334 9162 0
-9334 9333 0
9334 -9162 -9333 0
-9335 9165 0
-9335 9334 0
9335 -9165 -9334 0
-9336 9168 0
-9336 9335 0
9336 -9168 -9335 0
-9337 9171 0
-9337 9336 0
9337 -9171 -9336 0
-9338 9174 0
-9338 9337 0
9338 -9174 -9337 0
-9339 9177 0
-9339 9338 0
9339 -9177 -9338 0
-9340 9180 0
-9340 9339 0
9340 -9180 -9339 0
-9341 9183 0
-9341 9340 0
9341 -9183 -9340 0
-9342 9186 0
-9342 9341 0
9342 -9186 -9341 0
-9343 9189 0
-9343 9342 0
9343 -9189 -9342 0
-9344 9192 0
-9344 9343 0
9344 -9192 -9343 0
-9345 9195 0
-9345 9344 0
9345 -9195 -9344 0
-9346 9198 0
-9346 9345 0
9346 -9198 -9345 0
-9347 9201 0
-9347 9346 0
9347 -9201 -9346 0
-9348 9204 0
-9348 9347 0
9348 -9204 -9347 0
-9349 9207 0
-9349 9348 0
9349 -9207 -9348 0
-9350 9210 0
-9350 9349 0
9350 -9210 -9349 0
-9351 9213 0
-9351 9350 0
9351 -9213 -9350 0
-9352 9216 0
-9352 9351 0
9352 -9216 -9351 0
-9353 9219 0
-9353 9352 0
9353 -9219 -9352 0
-9354 9222 0
-9354 9353 0
9354 -9222 -9353 0
-9355 9225 0
-9355 9354 0
9355 -9225 -9354 0
-9356 9228 0
-9356 9355 0
9356 -9228 -9355 0
-9357 9231 0
-9357 9356 0
9357 -9231 -9356 0
-9358 9234 0
-9358 9357 0
9358 -9234 -9357 0
-9359 9237 0
-9359 9358 0
9359 -9237 -9358 0
-9360 9240 0
-9360 9359 0
9360 -9240 -9359 0
-9361 9243 0
-9361 9360 0
9361 -9243 -9360 0
-9362 9246 0
-9362 9361 0
9362 -9246 -9361 0
-9363 9249 0
-9363 9362 0
9363 -9249 -9362 0
-9364 9252 0
-9364 9363 0
9364 -9252 -9363 0
-9365 9255 0
-9365 9364 0
9365 -9255 -9364 0
-9366 9258 0
-9366 9365 0
9366 -9258 -9365 0
-9367 9261 0
-9367 9366 0
9367 -9261 -9366 0
-9368 9264 0
-9368 9367 0
9368 -9264 -9367 0
-9369 9267 0
-9369 9368 0
9369 -9267 -9368 0
-9370 9270 0
-9370 9369 0
9370 -9270 -9369 0
-9371 9273 0
-9371 9370 0
9371 -9273 -9370 0
-9372 9276 0
-9372 9371 0
9372 -9276 -9371 0
-9373 9279 0
-9373 9372 0
9373 -9279 -9372 0
-9374 9282 0
-9374 9373 0
9374 -9282 -9373 0
-9375 9285 0
-9375 9374 0
9375 -9285 -9374 0
-9376 9288 0
-9376 9375 0
9376 -9288 -9375 0
-9377 9291 0
-9377 9376 0
9377 -9291 -9376 0
-9378 9294 0
-9378 9377 0
9378 -9294 -9377 0
-9379 9297 0
-9379 9378 0
9379 -9297 -9378 0
-9380 9300 0
-9380 9379 0
9380 -9300 -9379 0
-9381 9303 0
-9381 9380 0
9381 -9303 -9380 0
-9382 9306 0
-9382 9381 0
9382 -9306 -9381 0
-9383 9309 0
-9383 9382 0
9383 -9309 -9382 0
-9384 9312 0
-9384 9383 0
9384 -9312 -9383 0
-9385 9315 0
-9385 9384 0
9385 -9315 -9384 0
-9386 9318 0
-9386 9385 0
9386 -9318 -9385 0
-9387 9321 0
-9387 9386 0
9387 -9321 -9386 0
-9388 9324 0
-9388 9387 0
9388 -9324 -9387 0
-9389 9327 0
-9389 9388 0
9389 -9327 -9388 0
-9390 -8512 0
-9390 9389 0
9390 8512 -9389 0
-9391 7843 0
-9391 -9390 0
9391 -7843 9390 0
-9392 8448 0
-9392 -9391 0
9392 -8448 9391 0
-9579 -7948 0
-9579 8511 0
9579 7948 -8511 0
-9580 7948 0
-9580 -8511 0
9580 -7948 8511 0
-9581 -9579 0
-9581 -9580 0
9581 9579 9580 0
-9576 -7947 0
-9576 8510 0
9576 7947 -8510 0
-9577 7947 0
-9577 -8510 0
9577 -7947 8510 0
-9578 -9576 0
-9578 -9577 0
9578 9576 9577 0
-9573 -7946 0
-9573 8509 0
9573 7946 -8509 0
-9574 7946 0
-9574 -8509 0
9574 -7946 8509 0
-9575 -9573 0
-9575 -9574 0
9575 9573 9574 0
-9570 -7945 0
-9570 8508 0
9570 7945 -8508 0
-9571 7945 0
-9571 -8508 0
9571 -7945 8508 0
-9572 -9570 0
-9572 -9571 0
9572 9570 9571 0
-9567 -7944 0
-9567 8507 0
9567 7944 -8507 0
-9568 7944 0
-9568 -8507 0
9568 -7944 8507 0
-9569 -9567 0
-9569 -9568 0
9569 9567 9568 0
-9564 -7943 0
-9564 8506 0
9564 7943 -8506 0
-9565 7943 0
-9565 -8506 0
9565 -7943 8506 0
-9566 -9564 0
-9566 -9565 0
9566 9564 9565 0
-9561 -7942 0
-9561 8505 0
9561 7942 -8505 0
-9562 7942 0
-9562 -8505 0
9562 -7942 8505 0
-9563 -9561 0
-9563 -9562 0
9563 9561 9562 0
-9558 -7941 0
-9558 8504 0
9558 7941 -8504 0
-9559 7941 0
-9559 -8504 0
9559 -7941 8504 0
-9560 -9558 0
-9560 -9559 0
9560 9558 9559 0
-9555 -7940 0
-9555 8503 0
9555 7940 -8503 0
-9556 7940 0
-9556 -8503 0
9556 -7940 8503 0
-9557 -9555 0
-9557 -9556 0
9557 9555 9556 0
-9552 -7939 0
-9552 8502 0
9552 7939 -8502 0
-9553 7939 0
-9553 -8502 0
9553 -7939 8502 0
-9554 -9552 0
-9554 -9553 0
9554 9552 9553 0
-9549 -7938 0
-9549 8501 0
9549 7938 -8501 0
-9550 7938 0
-9550 -8501 0
9550 -7938 8501 0
-9551 -9549 0
-9551 -9550 0
9551 9549 9550 0
-9546 -7937 0
-9546 8500 0
9546 7937 -8500 0
-9547 7937 0
-9547 -8500 0
9547 -7937 8500 0
-9548 -9546 0
-9548 -9547 0
9548 9546 9547 0
-9543 -7936 0
-9543 8499 0
9543 7936 -8499 0
-9544 7936 0
-9544 -8499 0
9544 -7936 8499 0
-9545 -9543 0
-9545 -9544 0
9545 9543 9544 0
-9540 -7935 0
-9540 8498 0
9540 7935 -8498 0
-9541 7935 0
-9541 -8498 0
9541 -7935 8498 0
-9542 -9540 0
-9542 -9541 0
9542 9540 9541 0
-9537 -7934 0
-9537 8497 0
9537 7934 -8497 0
-9538 7934 0
-9538 -8497 0
9538 -7934 8497 0
-9539 -9537 0
-9539 -9538 0
9539 9537 9538 0
-9534 -7933 0
-9534 8496 0
9534 7933 -8496 0
-9535 7933 0
-9535 -8496 0
9535 -7933 8496 0
-9536 -9534 0
-9536 -9535 0
9536 9534 9535 0
-9531 -7932 0
-9531 8495 0
9531 7932 -8495 0
-9532 7932 0
-9532 -8495 0
9532 -7932 8495 0
-9533 -9531 0
-9533 -9532 0
9533 9531 9532 0
-9528 -7931 0
-9528 8494 0
9528 7931 -8494 0
-9529 7931 0
-9529 -8494 0
9529 -7931 8494 0
-9530 -9528 0
-9530 -9529 0
9530 9528 9529 0
-9525 -7930 0
-9525 8493 0
9525 7930 -8493 0
-9526 7930 0
-9526 -8493 0
9526 -7930 8493 0
-9527 -9525 0
-9527 -9526 0
9527 9525 9526 0
-9522 -7929 0
-9522 8492 0
9522 7929 -8492 0
-9523 7929 0
-9523 -8492 0
9523 -7929 8492 0
-9524 -9522 0
-9524 -9523 0
9524 9522 9523 0
-9519 -7928 0
-9519 8491 0
9519 7928 -8491 0
-9520 7928 0
-9520 -8491 0
9520 -7928 8491 0
-9521 -9519 0
-9521 -9520 0
9521 9519 9520 0
-9516 -7927 0
-9516 8490 0
9516 7927 -8490 0
-9517 7927 0
-9517 -8490 0
9517 -7927 8490 0
-9518 -9516 0
-9518 -9517 0
9518 9516 9517 0
-9513 -7926 0
-9513 8489 0
9513 7926 -8489 0
-9514 7926 0
-9514 -8489 0
9514 -7926 8489 0
-9515 -9513 0
-9515 -9514 0
9515 9513 9514 0
-9510 -7925 0
-9510 8488 0
9510 7925 -8488 0
-9511 7925 0
-9511 -8488 0
9511 -7925 8488 0
-9512 -9510 0
-9512 -9511 0
9512 9510 9511 0
-9507 -7924 0
-9507 8487 0
9507 7924 -8487 0
-9508 7924 0
-9508 -8487 0
9508 -7924 8487 0
-9509 -9507 0
-9509 -9508 0
9509 9507 9508 0
-9504 -7923 0
-9504 8486 0
9504 7923 -8486 0
-9505 7923 0
-9505 -8486 0
9505 -7923 8486 0
-9506 -9504 0
-9506 -9505 0
9506 9504 9505 0
-9501 -7922 0
-9501 8485 0
9501 7922 -8485 0
-9502 7922 0
-9502 -8485 0
9502 -7922 8485 0
-9503 -9501 0
-9503 -9502 0
9503 9501 9502 0
-9498 -7921 0
-9498 8484 0
9498 7921 -8484 0
-9499 7921 0
-9499 -8484 0
9499 -7921 8484 0
-9500 -9498 0
-9500 -9499 0
9500 9498 9499 0
-9495 -7920 0
-9495 8483 0
9495 7920 -8483 0
-9496 7920 0
-9496 -8483 0
9496 -7920 8483 0
-9497 -9495 0
-9497 -9496 0
9497 9495 9496 0
-9492 -7919 0
-9492 8482 0
9492 7919 -8482 0
-9493 7919 0
-9493 -8482 0
9493 -7919 8482 0
-9494 -9492 0
-9494 -9493 0
9494 9492 9493 0
-9489 -7918 0
-9489 8481 0
9489 7918 -8481 0
-9490 7918 0
-9490 -8481 0
9490 -7918 8481 0
-9491 -9489 0
-9491 -9490 0
9491 9489 9490 0
-9486 -7917 0
-9486 8480 0
9486 7917 -8480 0
-9487 7917 0
-9487 -8480 0
9487 -7917 8480 0
-9488 -9486 0
-9488 -9487 0
9488 9486 9487 0
-9483 -7916 0
-9483 8479 0
9483 7916 -8479 0
-9484 7916 0
-9484 -8479 0
9484 -7916 8479 0
-9485 -9483 0
-9485 -9484 0
9485 9483 9484 0
-9480 -7915 0
-9480 8478 0
9480 7915 -8478 0
-9481 7915 0
-9481 -8478 0
9481 -7915 8478 0
-9482 -9480 0
-9482 -9481 0
9482 9480 9481 0
-9477 -7914 0
-9477 8477 0
9477 7914 -8477 0
-9478 7914 0
-9478 -8477 0
9478 -7914 8477 0
-9479 -9477 0
-9479 -9478 0
9479 9477 9478 0
-9474 -7913 0
-9474 8476 0
9474 7913 -8476 0
-9475 7913 0
-9475 -8476 0
9475 -7913 8476 0
-9476 -9474 0
-9476 -9475 0
9476 9474 9475 0
-9471 -7912 0
-9471 8475 0
9471 7912 -8475 0
-9472 7912 0
-9472 -8475 0
9472 -7912 8475 0
-9473 -9471 0
-9473 -9472 0
9473 9471 9472 0
-9468 -7911 0
-9468 8474 0
9468 7911 -8474 0
-9469 7911 0
-9469 -8474 0
9469 -7911 8474 0
-9470 -9468 0
-9470 -9469 0
9470 9468 9469 0
-9465 -7910 0
-9465 8473 0
9465 7910 -8473 0
-9466 7910 0
-9466 -8473 0
9466 -7910 8473 0
-9467 -9465 0
-9467 -9466 0
9467 9465 9466 0
-9462 -7909 0
-9462 8472 0
9462 7909 -8472 0
-9463 7909 0
-9463 -8472 0
9463 -7909 8472 0
-9464 -9462 0
-9464 -9463 0
9464 9462 9463 0
-9459 -7908 0
-9459 8471 0
9459 7908 -8471 0
-9460 7908 0
-9460 -8471 0
9460 -7908 8471 0
-9461 -9459 0
-9461 -9460 0
9461 9459 9460 0
-9456 -7907 0
-9456 8470 0
9456 7907 -8470 0
-9457 7907 0
-9457 -8470 0
9457 -7907 8470 0
-9458 -9456 0
-9458 -9457 0
9458 9456 9457 0
-9453 -7906 0
-9453 8469 0
9453 7906 -8469 0
-9454 7906 0
-9454 -8469 0
9454 -7906 8469 0
-9455 -9453 0
-9455 -9454 0
9455 9453 9454 0
-9450 -7905 0
-9450 8468 0
9450 7905 -8468 0
-9451 7905 0
-9451 -8468 0
9451 -7905 8468 0
-9452 -9450 0
-9452 -9451 0
9452 9450 9451 0
-9447 -7904 0
-9447 8467 0
9447 7904 -8467 0
-9448 7904 0
-9448 -8467 0
9448 -7904 8467 0
-9449 -9447 0
-9449 -9448 0
9449 9447 9448 0
-9444 -7903 0
-9444 8466 0
9444 7903 -8466 0
-9445 7903 0
-9445 -8466 0
9445 -7903 8466 0
-9446 -9444 0
-9446 -9445 0
9446 9444 9445 0
-9441 -7902 0
-9441 8465 0
9441 7902 -8465 0
-9442 7902 0
-9442 -8465 0
9442 -7902 8465 0
-9443 -9441 0
-9443 -9442 0
9443 9441 9442 0
-9438 -7901 0
-9438 8464 0
9438 7901 -8464 0
-9439 7901 0
-9439 -8464 0
9439 -7901 8464 0
-9440 -9438 0
-9440 -9439 0
9440 9438 9439 0
-9435 -7900 0
-9435 8463 0
9435 7900 -8463 0
-9436 7900 0
-9436 -8463 0
9436 -7900 8463 0
-9437 -9435 0
-9437 -9436 0
9437 9435 9436 0
-9432 -7899 0
-9432 8462 0
9432 7899 -8462 0
-9433 7899 0
-9433 -8462 0
9433 -7899 8462 0
-9434 -9432 0
-9434 -9433 0
9434 9432 9433 0
-9429 -7898 0
-9429 8461 0
9429 7898 -8461 0
-9430 7898 0
-9430 -8461 0
9430 -7898 8461 0
-9431 -9429 0
-9431 -9430 0
9431 9429 9430 0
-9426 -7897 0
-9426 8460 0
9426 7897 -8460 0
-9427 7897 0
-9427 -8460 0
9427 -7897 8460 0
-9428 -9426 0
-9428 -9427 0
9428 9426 9427 0
-9423 -7896 0
-9423 8459 0
9423 7896 -8459 0
-9424 7896 0
-9424 -8459 0
9424 -7896 8459 0
-9425 -9423 0
-9425 -9424 0
9425 9423 9424 0
-9420 -7895 0
-9420 8458 0
9420 7895 -8458 0
-9421 7895 0
-9421 -8458 0
9421 -7895 8458 0
-9422 -9420 0
-9422 -9421 0
9422 9420 9421 0
-9417 -7894 0
-9417 8457 0
9417 7894 -8457 0
-9418 7894 0
-9418 -8457 0
9418 -7894 8457 0
-9419 -9417 0
-9419 -9418 0
9419 9417 9418 0
-9414 -7893 0
-9414 8456 0
9414 7893 -8456 0
-9415 7893 0
-9415 -8456 0
9415 -7893 8456 0
-9416 -9414 0
-9416 -9415 0
9416 9414 9415 0
-9411 -7892 0
-9411 8455 0
9411 7892 -8455 0
-9412 7892 0
-9412 -8455 0
9412 -7892 8455 0
-9413 -9411 0
-9413 -9412 0
9413 9411 9412 0
-9408 -7891 0
-9408 8454 0
9408 7891 -8454 0
-9409 7891 0
-9409 -8454 0
9409 -7891 8454 0
-9410 -9408 0
-9410 -9409 0
9410 9408 9409 0
-9405 -7890 0
-9405 8453 0
9405 7890 -8453 0
-9406 7890 0
-9406 -8453 0
9406 -7890 8453 0
-9407 -9405 0
-9407 -9406 0
9407 9405 9406 0
-9402 -7889 0
-9402 8452 0
9402 7889 -8452 0
-9403 7889 0
-9403 -8452 0
9403 -7889 8452 0
-9404 -9402 0
-9404 -9403 0
9404 9402 9403 0
-9399 -7888 0
-9399 8451 0
9399 7888 -8451 0
-9400 7888 0
-9400 -8451 0
9400 -7888 8451 0
-9401 -9399 0
-9401 -9400 0
9401 9399 9400 0
-9393 -7886 0
-9393 8449 0
9393 7886 -8449 0
-9394 7886 0
-9394 -8449 0
9394 -7886 8449 0
-9395 -9393 0
-9395 -9394 0
9395 9393 9394 0
-9396 -7887 0
-9396 8450 0
9396 7887 -8450 0
-9397 7887 0
-9397 -8450 0
9397 -7887 8450 0
-9398 -9396 0
-9398 -9397 0
9398 9396 9397 0
-9582 9395 0
-9582 9398 0
9582 -9395 -9398 0
-9583 9401 0
-9583 9582 0
9583 -9401 -9582 0
-9584 9404 0
-9584 9583 0
9584 -9404 -9583 0
-9585 9407 0
-9585 9584 0
9585 -9407 -9584 0
-9586 9410 0
-9586 9585 0
9586 -9410 -9585 0
-9587 9413 0
-9587 9586 0
9587 -9413 -9586 0
-9588 9416 0
-9588 9587 0
9588 -9416 -9587 0
-9589 9419 0
-9589 9588 0
9589 -9419 -9588 0
-9590 9422 0
-9590 9589 0
9590 -9422 -9589 0
-9591 9425 0
-9591 9590 0
9591 -9425 -9590 0
-9592 9428 0
-9592 9591 0
9592 -9428 -9591 0
-9593 9431 0
-9593 9592 0
9593 -9431 -9592 0
-9594 9434 0
-9594 9593 0
9594 -9434 -9593 0
-9595 9437 0
-9595 9594 0
9595 -9437 -9594 0
-9596 9440 0
-9596 9595 0
9596 -9440 -9595 0
-9597 9443 0
-9597 9596 0
9597 -9443 -9596 0
-9598 9446 0
-9598 9597 0
9598 -9446 -9597 0
-9599 9449 0
-9599 9598 0
9599 -9449 -9598 0
-9600 9452 0
-9600 9599 0
9600 -9452 -9599 0
-9601 9455 0
-9601 9600 0
9601 -9455 -9600 0
-9602 9458 0
-9602 9601 0
9602 -9458 -9601 0
-9603 9461 0
-9603 9602 0
9603 -9461 -9602 0
-9604 9464 0
-9604 9603 0
9604 -9464 -9603 0
-9605 9467 0
-9605 9604 0
9605 -9467 -9604 0
-9606 9470 0
-9606 9605 0
9606 -9470 -9605 0
-9607 9473 0
-9607 9606 0
9607 -9473 -9606 0
-9608 9476 0
-9608 9607 0
9608 -9476 -9607 0
-9609 9479 0
-9609 9608 0
9609 -9479 -9608 0
-9610 9482 0
-9610 9609 0
9610 -9482 -9609 0
-9611 9485 0
-9611 9610 0
9611 -9485 -9610 0
-9612 9488 0
-9612 9611 0
9612 -9488 -9611 0
-9613 9491 0
-9613 9612 0
9613 -9491 -9612 0
-9614 9494 0
-9614 9613 0
9614 -9494 -9613 0
-9615 9497 0
-9615 9614 0
9615 -9497 -9614 0
-9616 9500 0
-9616 9615 0
9616 -9500 -9615 0
-9617 9503 0
-9617 9616 0
9617 -9503 -9616 0
-9618 9506 0
-9618 9617 0
9618 -9506 -9617 0
-9619 9509 0
-9619 9618 0
9619 -9509 -9618 0
-9620 9512 0
-9620 9619 0
9620 -9512 -9619 0
-9621 9515 0
-9621 9620 0
9621 -9515 -9620 0
-9622 9518 0
-9622 9621 0
9622 -9518 -9621 0
-9623 9521 0
-9623 9622 0
9623 -9521 -9622 0
-9624 9524 0
-9624 9623 0
9624 -9524 -9623 0
-9625 9527 0
-9625 9624 0
9625 -9527 -9624 0
-9626 9530 0
-9626 9625 0
9626 -9530 -9625 0
-9627 9533 0
-9627 9626 0
9627 -9533 -9626 0
-9628 9536 0
-9628 9627 0
9628 -9536 -9627 0
-9629 9539 0
-9629 9628 0
9629 -9539 -9628 0
-9630 9542 0
-9630 9629 0
9630 -9542 -9629 0
-9631 9545 0
-9631 9630 0
9631 -9545 -9630 0
-9632 9548 0
-9632 9631 0
9632 -9548 -9631 0
-9633 9551 0
-9633 9632 0
9633 -9551 -9632 0
-9634 9554 0
-9634 9633 0
9634 -9554 -9633 0
-9635 9557 0
-9635 9634 0
9635 -9557 -9634 0
-9636 9560 0
-9636 9635 0
9636 -9560 -9635 0
-9637 9563 0
-9637 9636 0
9637 -9563 -9636 0
-9638 9566 0
-9638 9637 0
9638 -9566 -9637 0
-9639 9569 0
-9639 9638 0
9639 -9569 -9638 0
-9640 9572 0
-9640 9639 0
9640 -9572 -9639 0
-9641 9575 0
-9641 9640 0
9641 -9575 -9640 0
-9642 9578 0
-9642 9641 0
9642 -9578 -9641 0
-9643 9581 0
-9643 9642 0
9643 -9581 -9642 0
-9644 -8512 0
-9644 9643 0
9644 8512 -9643 0
-9645 -7843 0
-9645 -9644 0
9645 7843 9644 0
-9646 9392 0
-9646 -9645 0
9646 -9392 9645 0
9647 -17055 0
-9647 17055 0
-9648 -7140 0
-9648 9647 0
9648 7140 -9647 0
-9649 7140 0
-9649 -9647 0
9649 -7140 9647 0
-9650 -9648 0
-9650 -9649 0
9650 9648 9649 0
-9651 6028 0
-9651 -9650 0
9651 -6028 9650 0
-9652 9646 0
-9652 -9651 0
9652 -9646 9651 0
-9653 -6072 0
-9653 9647 0
9653 6072 -9647 0
-9654 6072 0
-9654 -9647 0
9654 -6072 9647 0
-9655 -9653 0
-9655 -9654 0
9655 9653 9654 0
-9656 -6028 0
-9656 -9655 0
9656 6028 9655 0
-9657 9652 0
-9657 -9656 0
9657 -9652 9656 0
9658 -17056 0
-9658 17056 0
-9659 -8952 0
-9659 9658 0
9659 8952 -9658 0
-9660 8952 0
-9660 -9658 0
9660 -8952 9658 0
-9661 -9659 0
-9661 -9660 0
9661 9659 9660 0
-9662 7843 0
-9662 -9661 0
9662 -7843 9661 0
-9663 9657 0
-9663 -9662 0
9663 -9657 9662 0
-9664 -9647 0
-9664 9658 0
9664 9647 -9658 0
-9665 9647 0
-9665 -9658 0
9665 -9647 9658 0
-9666 -9664 0
-9666 -9665 0
9666 9664 9665 0
-9667 -7843 0
-9667 -9666 0
9667 7843 9666 0
-9668 9663 0
-9668 -9667 0
9668 -9663 9667 0
9678 -17066 0
-9678 17066 0
9677 -17065 0
-9677 17065 0
9676 -17064 0
-9676 17064 0
9675 -17063 0
-9675 17063 0
9674 -17062 0
-9674 17062 0
9673 -17061 0
-9673 17061 0
9672 -17060 0
-9672 17060 0
9671 -17059 0
-9671 17059 0
9669 -17057 0
-9669 17057 0
9670 -17058 0
-9670 17058 0
-9679 9669 0
-9679 -9670 0
9679 -9669 9670 0
-9680 -9671 0
-9680 9679 0
9680 9671 -9679 0
-9681 -9672 0
-9681 9680 0
9681 9672 -9680 0
-9682 -9673 0
-9682 9681 0
9682 9673 -9681 0
-9683 -9674 0
-9683 9682 0
9683 9674 -9682 0
-9684 -9675 0
-9684 9683 0
9684 9675 -9683 0
-9685 -9676 0
-9685 9684 0
9685 9676 -9684 0
-9686 -9677 0
-9686 9685 0
9686 9677 -9685 0
-9687 -9678 0
-9687 9686 0
9687 9678 -9686 0
-9688 9658 0
-9688 -9687 0
9688 -9658 9687 0
-9689 9668 0
-9689 -9688 0
9689 -9668 9688 0
-9690 -9669 0
-9690 -9670 0
9690 9669 9670 0
-9691 -9671 0
-9691 9690 0
9691 9671 -9690 0
-9692 -9672 0
-9692 9691 0
9692 9672 -9691 0
-9693 -9673 0
-9693 9692 0
9693 9673 -9692 0
-9694 -9674 0
-9694 9693 0
9694 9674 -9693 0
-9695 -9675 0
-9695 9694 0
9695 9675 -9694 0
-9696 -9676 0
-9696 9695 0
9696 9676 -9695 0
-9697 -9677 0
-9697 9696 0
9697 9677 -9696 0
-9698 -9678 0
-9698 9697 0
9698 9678 -9697 0
-9699 -9658 0
-9699 -9698 0
9699 9658 9698 0
-9700 9689 0
-9700 -9699 0
9700 -9689 9699 0
9763 -17129 0
-9763 17129 0
9762 -17128 0
-9762 17128 0
-9947 -9138 0
-9947 9762 0
9947 9138 -9762 0
-9948 9138 0
-9948 -9762 0
9948 -9138 9762 0
-9949 -9947 0
-9949 -9948 0
9949 9947 9948 0
9761 -17127 0
-9761 17127 0
-9944 -9135 0
-9944 9761 0
9944 9135 -9761 0
-9945 9135 0
-9945 -9761 0
9945 -9135 9761 0
-9946 -9944 0
-9946 -9945 0
9946 9944 9945 0
9760 -17126 0
-9760 17126 0
-9941 -9132 0
-9941 9760 0
9941 9132 -9760 0
-9942 9132 0
-9942 -9760 0
9942 -9132 9760 0
-9943 -9941 0
-9943 -9942 0
9943 9941 9942 0
9759 -17125 0
-9759 17125 0
-9938 -9129 0
-9938 9759 0
9938 9129 -9759 0
-9939 9129 0
-9939 -9759 0
9939 -9129 9759 0
-9940 -9938 0
-9940 -9939 0
9940 9938 9939 0
9758 -17124 0
-9758 17124 0
-9935 -9126 0
-9935 9758 0
9935 9126 -9758 0
-9936 9126 0
-9936 -9758 0
9936 -9126 9758 0
-9937 -9935 0
-9937 -9936 0
9937 9935 9936 0
9757 -17123 0
-9757 17123 0
-9932 -9123 0
-9932 9757 0
9932 9123 -9757 0
-9933 9123 0
-9933 -9757 0
9933 -9123 9757 0
-9934 -9932 0
-9934 -9933 0
9934 9932 9933 0
9756 -17122 0
-9756 17122 0
-9929 -9120 0
-9929 9756 0
9929 9120 -9756 0
-9930 9120 0
-9930 -9756 0
9930 -9120 9756 0
-9931 -9929 0
-9931 -9930 0
9931 9929 9930 0
9755 -17121 0
-9755 17121 0
-9926 -9117 0
-9926 9755 0
9926 9117 -9755 0
-9927 9117 0
-9927 -9755 0
9927 -9117 9755 0
-9928 -9926 0
-9928 -9927 0
9928 9926 9927 0
9754 -17120 0
-9754 17120 0
-9923 -9114 0
-9923 9754 0
9923 9114 -9754 0
-9924 9114 0
-9924 -9754 0
9924 -9114 9754 0
-9925 -9923 0
-9925 -9924 0
9925 9923 9924 0
9753 -17119 0
-9753 17119 0
-9920 -9111 0
-9920 9753 0
9920 9111 -9753 0
-9921 9111 0
-9921 -9753 0
9921 -9111 9753 0
-9922 -9920 0
-9922 -9921 0
9922 9920 9921 0
9752 -17118 0
-9752 17118 0
-9917 -9108 0
-9917 9752 0
9917 9108 -9752 0
-9918 9108 0
-9918 -9752 0
9918 -9108 9752 0
-9919 -9917 0
-9919 -9918 0
9919 9917 9918 0
9751 -17117 0
-9751 17117 0
-9914 -9105 0
-9914 9751 0
9914 9105 -9751 0
-9915 9105 0
-9915 -9751 0
9915 -9105 9751 0
-9916 -9914 0
-9916 -9915 0
9916 9914 9915 0
9750 -17116 0
-9750 17116 0
-9911 -9102 0
-9911 9750 0
9911 9102 -9750 0
-9912 9102 0
-9912 -9750 0
9912 -9102 9750 0
-9913 -9911 0
-9913 -9912 0
9913 9911 9912 0
9749 -17115 0
-9749 17115 0
-9908 -9099 0
-9908 9749 0
9908 9099 -9749 0
-9909 9099 0
-9909 -9749 0
9909 -9099 9749 0
-9910 -9908 0
-9910 -9909 0
9910 9908 9909 0
9748 -17114 0
-9748 17114 0
-9905 -9096 0
-9905 9748 0
9905 9096 -9748 0
-9906 9096 0
-9906 -9748 0
9906 -9096 9748 0
-9907 -9905 0
-9907 -9906 0
9907 9905 9906 0
9747 -17113 0
-9747 17113 0
-9902 -9093 0
-9902 9747 0
9902 9093 -9747 0
-9903 9093 0
-9903 -9747 0
9903 -9093 9747 0
-9904 -9902 0
-9904 -9903 0
9904 9902 9903 0
9746 -17112 0
-9746 17112 0
-9899 -9090 0
-9899 9746 0
9899 9090 -9746 0
-9900 9090 0
-9900 -9746 0
9900 -9090 9746 0
-9901 -9899 0
-9901 -9900 0
9901 9899 9900 0
9745 -17111 0
-9745 17111 0
-9896 -9087 0
-9896 9745 0
9896 9087 -9745 0
-9897 9087 0
-9897 -9745 0
9897 -9087 9745 0
-9898 -9896 0
-9898 -9897 0
9898 9896 9897 0
9744 -17110 0
-9744 17110 0
-9893 -9084 0
-9893 9744 0
9893 9084 -9744 0
-9894 9084 0
-9894 -9744 0
9894 -9084 9744 0
-9895 -9893 0
-9895 -9894 0
9895 9893 9894 0
9743 -17109 0
-9743 17109 0
-9890 -9081 0
-9890 9743 0
9890 9081 -9743 0
-9891 9081 0
-9891 -9743 0
9891 -9081 9743 0
-9892 -9890 0
-9892 -9891 0
9892 9890 9891 0
9742 -17108 0
-9742 17108 0
-9887 -9078 0
-9887 9742 0
9887 9078 -9742 0
-9888 9078 0
-9888 -9742 0
9888 -9078 9742 0
-9889 -9887 0
-9889 -9888 0
9889 9887 9888 0
9741 -17107 0
-9741 17107 0
-9884 -9075 0
-9884 9741 0
9884 9075 -9741 0
-9885 9075 0
-9885 -9741 0
9885 -9075 9741 0
-9886 -9884 0
-9886 -9885 0
9886 9884 9885 0
9740 -17106 0
-9740 17106 0
-9881 -9072 0
-9881 9740 0
9881 9072 -9740 0
-9882 9072 0
-9882 -9740 0
9882 -9072 9740 0
-9883 -9881 0
-9883 -9882 0
9883 9881 9882 0
9739 -17105 0
-9739 17105 0
-9878 -9069 0
-9878 9739 0
9878 9069 -9739 0
-9879 9069 0
-9879 -9739 0
9879 -9069 9739 0
-9880 -9878 0
-9880 -9879 0
9880 9878 9879 0
9738 -17104 0
-9738 17104 0
-9875 -9066 0
-9875 9738 0
9875 9066 -9738 0
-9876 9066 0
-9876 -9738 0
9876 -9066 9738 0
-9877 -9875 0
-9877 -9876 0
9877 9875 9876 0
9737 -17103 0
-9737 17103 0
-9872 -9063 0
-9872 9737 0
9872 9063 -9737 0
-9873 9063 0
-9873 -9737 0
9873 -9063 9737 0
-9874 -9872 0
-9874 -9873 0
9874 9872 9873 0
9736 -17102 0
-9736 17102 0
-9869 -9060 0
-9869 9736 0
9869 9060 -9736 0
-9870 9060 0
-9870 -9736 0
9870 -9060 9736 0
-9871 -9869 0
-9871 -9870 0
9871 9869 9870 0
9735 -17101 0
-9735 17101 0
-9866 -9057 0
-9866 9735 0
9866 9057 -9735 0
-9867 9057 0
-9867 -9735 0
9867 -9057 9735 0
-9868 -9866 0
-9868 -9867 0
9868 9866 9867 0
9734 -17100 0
-9734 17100 0
-9863 -9054 0
-9863 9734 0
9863 9054 -9734 0
-9864 9054 0
-9864 -9734 0
9864 -9054 9734 0
-9865 -9863 0
-9865 -9864 0
9865 9863 9864 0
9733 -17099 0
-9733 17099 0
-9860 -9051 0
-9860 9733 0
9860 9051 -9733 0
-9861 9051 0
-9861 -9733 0
9861 -9051 9733 0
-9862 -9860 0
-9862 -9861 0
9862 9860 9861 0
9732 -17098 0
-9732 17098 0
-9857 -9048 0
-9857 9732 0
9857 9048 -9732 0
-9858 9048 0
-9858 -9732 0
9858 -9048 9732 0
-9859 -9857 0
-9859 -9858 0
9859 9857 9858 0
9731 -17097 0
-9731 17097 0
-9854 -9045 0
-9854 9731 0
9854 9045 -9731 0
-9855 9045 0
-9855 -9731 0
9855 -9045 9731 0
-9856 -9854 0
-9856 -9855 0
9856 9854 9855 0
9730 -17096 0
-9730 17096 0
-9851 -9042 0
-9851 9730 0
9851 9042 -9730 0
-9852 9042 0
-9852 -9730 0
9852 -9042 9730 0
-9853 -9851 0
-9853 -9852 0
9853 9851 9852 0
9729 -17095 0
-9729 17095 0
-9848 -9039 0
-9848 9729 0
9848 9039 -9729 0
-9849 9039 0
-9849 -9729 0
9849 -9039 9729 0
-9850 -9848 0
-9850 -9849 0
9850 9848 9849 0
9728 -17094 0
-9728 17094 0
-9845 -9036 0
-9845 9728 0
9845 9036 -9728 0
-9846 9036 0
-9846 -9728 0
9846 -9036 9728 0
-9847 -9845 0
-9847 -9846 0
9847 9845 9846 0
9727 -17093 0
-9727 17093 0
-9842 -9033 0
-9842 9727 0
9842 9033 -9727 0
-9843 9033 0
-9843 -9727 0
9843 -9033 9727 0
-9844 -9842 0
-9844 -9843 0
9844 9842 9843 0
9726 -17092 0
-9726 17092 0
-9839 -9030 0
-9839 9726 0
9839 9030 -9726 0
-9840 9030 0
-9840 -9726 0
9840 -9030 9726 0
-9841 -9839 0
-9841 -9840 0
9841 9839 9840 0
9725 -17091 0
-9725 17091 0
-9836 -9027 0
-9836 9725 0
9836 9027 -9725 0
-9837 9027 0
-9837 -9725 0
9837 -9027 9725 0
-9838 -9836 0
-9838 -9837 0
9838 9836 9837 0
9724 -17090 0
-9724 17090 0
-9833 -9024 0
-9833 9724 0
9833 9024 -9724 0
-9834 9024 0
-9834 -9724 0
9834 -9024 9724 0
-9835 -9833 0
-9835 -9834 0
9835 9833 9834 0
9723 -17089 0
-9723 17089 0
-9830 -9021 0
-9830 9723 0
9830 9021 -9723 0
-9831 9021 0
-9831 -9723 0
9831 -9021 9723 0
-9832 -9830 0
-9832 -9831 0
9832 9830 9831 0
9722 -17088 0
-9722 17088 0
-9827 -9018 0
-9827 9722 0
9827 9018 -9722 0
-9828 9018 0
-9828 -9722 0
9828 -9018 9722 0
-9829 -9827 0
-9829 -9828 0
9829 9827 9828 0
9721 -17087 0
-9721 17087 0
-9824 -9015 0
-9824 9721 0
9824 9015 -9721 0
-9825 9015 0
-9825 -9721 0
9825 -9015 9721 0
-9826 -9824 0
-9826 -9825 0
9826 9824 9825 0
9720 -17086 0
-9720 17086 0
-9821 -9012 0
-9821 9720 0
9821 9012 -9720 0
-9822 9012 0
-9822 -9720 0
9822 -9012 9720 0
-9823 -9821 0
-9823 -9822 0
9823 9821 9822 0
9719 -17085 0
-9719 17085 0
-9818 -9009 0
-9818 9719 0
9818 9009 -9719 0
-9819 9009 0
-9819 -9719 0
9819 -9009 9719 0
-9820 -9818 0
-9820 -9819 0
9820 9818 9819 0
9718 -17084 0
-9718 17084 0
-9815 -9006 0
-9815 9718 0
9815 9006 -9718 0
-9816 9006 0
-9816 -9718 0
9816 -9006 9718 0
-9817 -9815 0
-9817 -9816 0
9817 9815 9816 0
9717 -17083 0
-9717 17083 0
-9812 -9003 0
-9812 9717 0
9812 9003 -9717 0
-9813 9003 0
-9813 -9717 0
9813 -9003 9717 0
-9814 -9812 0
-9814 -9813 0
9814 9812 9813 0
9716 -17082 0
-9716 17082 0
-9809 -9000 0
-9809 9716 0
9809 9000 -9716 0
-9810 9000 0
-9810 -9716 0
9810 -9000 9716 0
-9811 -9809 0
-9811 -9810 0
9811 9809 9810 0
9715 -17081 0
-9715 17081 0
-9806 -8997 0
-9806 9715 0
9806 8997 -9715 0
-9807 8997 0
-9807 -9715 0
9807 -8997 9715 0
-9808 -9806 0
-9808 -9807 0
9808 9806 9807 0
9714 -17080 0
-9714 17080 0
-9803 -8994 0
-9803 9714 0
9803 8994 -9714 0
-9804 8994 0
-9804 -9714 0
9804 -8994 9714 0
-9805 -9803 0
-9805 -9804 0
9805 9803 9804 0
9713 -17079 0
-9713 17079 0
-9800 -8991 0
-9800 9713 0
9800 8991 -9713 0
-9801 8991 0
-9801 -9713 0
9801 -8991 9713 0
-9802 -9800 0
-9802 -9801 0
9802 9800 9801 0
9712 -17078 0
-9712 17078 0
-9797 -8988 0
-9797 9712 0
9797 8988 -9712 0
-9798 8988 0
-9798 -9712 0
9798 -8988 9712 0
-9799 -9797 0
-9799 -9798 0
9799 9797 9798 0
9711 -17077 0
-9711 17077 0
-9794 -8985 0
-9794 9711 0
9794 8985 -9711 0
-9795 8985 0
-9795 -9711 0
9795 -8985 9711 0
-9796 -9794 0
-9796 -9795 0
9796 9794 9795 0
9710 -17076 0
-9710 17076 0
-9791 -8982 0
-9791 9710 0
9791 8982 -9710 0
-9792 8982 0
-9792 -9710 0
9792 -8982 9710 0
-9793 -9791 0
-9793 -9792 0
9793 9791 9792 0
9709 -17075 0
-9709 17075 0
-9788 -8979 0
-9788 9709 0
9788 8979 -9709 0
-9789 8979 0
-9789 -9709 0
9789 -8979 9709 0
-9790 -9788 0
-9790 -9789 0
9790 9788 9789 0
9708 -17074 0
-9708 17074 0
-9785 -8976 0
-9785 9708 0
9785 8976 -9708 0
-9786 8976 0
-9786 -9708 0
9786 -8976 9708 0
-9787 -9785 0
-9787 -9786 0
9787 9785 9786 0
9707 -17073 0
-9707 17073 0
-9782 -8973 0
-9782 9707 0
9782 8973 -9707 0
-9783 8973 0
-9783 -9707 0
9783 -8973 9707 0
-9784 -9782 0
-9784 -9783 0
9784 9782 9783 0
9706 -17072 0
-9706 17072 0
-9779 -8970 0
-9779 9706 0
9779 8970 -9706 0
-9780 8970 0
-9780 -9706 0
9780 -8970 9706 0
-9781 -9779 0
-9781 -9780 0
9781 9779 9780 0
9705 -17071 0
-9705 17071 0
-9776 -8967 0
-9776 9705 0
9776 8967 -9705 0
-9777 8967 0
-9777 -9705 0
9777 -8967 9705 0
-9778 -9776 0
-9778 -9777 0
9778 9776 9777 0
9704 -17070 0
-9704 17070 0
-9773 -8964 0
-9773 9704 0
9773 8964 -9704 0
-9774 8964 0
-9774 -9704 0
9774 -8964 9704 0
-9775 -9773 0
-9775 -9774 0
9775 9773 9774 0
9703 -17069 0
-9703 17069 0
-9770 -8961 0
-9770 9703 0
9770 8961 -9703 0
-9771 8961 0
-9771 -9703 0
9771 -8961 9703 0
-9772 -9770 0
-9772 -9771 0
9772 9770 9771 0
9701 -17067 0
-9701 17067 0
-9764 -8955 0
-9764 9701 0
9764 8955 -9701 0
-9765 8955 0
-9765 -9701 0
9765 -8955 9701 0
-9766 -9764 0
-9766 -9765 0
9766 9764 9765 0
9702 -17068 0
-9702 17068 0
-9767 -8958 0
-9767 9702 0
9767 8958 -9702 0
-9768 8958 0
-9768 -9702 0
9768 -8958 9702 0
-9769 -9767 0
-9769 -9768 0
9769 9767 9768 0
-9950 9766 0
-9950 9769 0
9950 -9766 -9769 0
-9951 9772 0
-9951 9950 0
9951 -9772 -9950 0
-9952 9775 0
-9952 9951 0
9952 -9775 -9951 0
-9953 9778 0
-9953 9952 0
9953 -9778 -9952 0
-9954 9781 0
-9954 9953 0
9954 -9781 -9953 0
-9955 9784 0
-9955 9954 0
9955 -9784 -9954 0
-9956 9787 0
-9956 9955 0
9956 -9787 -9955 0
-9957 9790 0
-9957 9956 0
9957 -9790 -9956 0
-9958 9793 0
-9958 9957 0
9958 -9793 -9957 0
-9959 9796 0
-9959 9958 0
9959 -9796 -9958 0
-9960 9799 0
-9960 9959 0
9960 -9799 -9959 0
-9961 9802 0
-9961 9960 0
9961 -9802 -9960 0
-9962 9805 0
-9962 9961 0
9962 -9805 -9961 0
-9963 9808 0
-9963 9962 0
9963 -9808 -9962 0
-9964 9811 0
-9964 9963 0
9964 -9811 -9963 0
-9965 9814 0
-9965 9964 0
9965 -9814 -9964 0
-9966 9817 0
-9966 9965 0
9966 -9817 -9965 0
-9967 9820 0
-9967 9966 0
9967 -9820 -9966 0
-9968 9823 0
-9968 9967 0
9968 -9823 -9967 0
-9969 9826 0
-9969 9968 0
9969 -9826 -9968 0
-9970 9829 0
-9970 9969 0
9970 -9829 -9969 0
-9971 9832 0
-9971 9970 0
9971 -9832 -9970 0
-9972 9835 0
-9972 9971 0
9972 -9835 -9971 0
-9973 9838 0
-9973 9972 0
9973 -9838 -9972 0
-9974 9841 0
-9974 9973 0
9974 -9841 -9973 0
-9975 9844 0
-9975 9974 0
9975 -9844 -9974 0
-9976 9847 0
-9976 9975 0
9976 -9847 -9975 0
-9977 9850 0
-9977 9976 0
9977 -9850 -9976 0
-9978 9853 0
-9978 9977 0
9978 -9853 -9977 0
-9979 9856 0
-9979 9978 0
9979 -9856 -9978 0
-9980 9859 0
-9980 9979 0
9980 -9859 -9979 0
-9981 9862 0
-9981 9980 0
9981 -9862 -9980 0
-9982 9865 0
-9982 9981 0
9982 -9865 -9981 0
-9983 9868 0
-9983 9982 0
9983 -9868 -9982 0
-9984 9871 0
-9984 9983 0
9984 -9871 -9983 0
-9985 9874 0
-9985 9984 0
9985 -9874 -9984 0
-9986 9877 0
-9986 9985 0
9986 -9877 -9985 0
-9987 9880 0
-9987 9986 0
9987 -9880 -9986 0
-9988 9883 0
-9988 9987 0
9988 -9883 -9987 0
-9989 9886 0
-9989 9988 0
9989 -9886 -9988 0
-9990 9889 0
-9990 9989 0
9990 -9889 -9989 0
-9991 9892 0
-9991 9990 0
9991 -9892 -9990 0
-9992 9895 0
-9992 9991 0
9992 -9895 -9991 0
-9993 9898 0
-9993 9992 0
9993 -9898 -9992 0
-9994 9901 0
-9994 9993 0
9994 -9901 -9993 0
-9995 9904 0
-9995 9994 0
9995 -9904 -9994 0
-9996 9907 0
-9996 9995 0
9996 -9907 -9995 0
-9997 9910 0
-9997 9996 0
9997 -9910 -9996 0
-9998 9913 0
-9998 9997 0
9998 -9913 -9997 0
-9999 9916 0
-9999 9998 0
9999 -9916 -9998 0
-10000 9919 0
-10000 9999 0
10000 -9919 -9999 0
-10001 9922 0
-10001 10000 0
10001 -9922 -10000 0
-10002 9925 0
-10002 10001 0
10002 -9925 -10001 0
-10003 9928 0
-10003 10002 0
10003 -9928 -10002 0
-10004 9931 0
-10004 10003 0
10004 -9931 -10003 0
-10005 9934 0
-10005 10004 0
10005 -9934 -10004 0
-10006 9937 0
-10006 10005 0
10006 -9937 -10005 0
-10007 9940 0
-10007 10006 0
10007 -9940 -10006 0
-10008 9943 0
-10008 10007 0
10008 -9943 -10007 0
-10009 9946 0
-10009 10008 0
10009 -9946 -10008 0
-10010 9949 0
-10010 10009 0
10010 -9949 -10009 0
-10011 -9763 0
-10011 10010 0
10011 9763 -10010 0
-10012 7843 0
-10012 -10011 0
10012 -7843 10011 0
-10013 9700 0
-10013 -10012 0
10013 -9700 10012 0
-10197 -7948 0
-10197 9762 0
10197 7948 -9762 0
-10198 7948 0
-10198 -9762 0
10198 -7948 9762 0
-10199 -10197 0
-10199 -10198 0
10199 10197 10198 0
-10194 -7947 0
-10194 9761 0
10194 7947 -9761 0
-10195 7947 0
-10195 -9761 0
10195 -7947 9761 0
-10196 -10194 0
-10196 -10195 0
10196 10194 10195 0
-10191 -7946 0
-10191 9760 0
10191 7946 -9760 0
-10192 7946 0
-10192 -9760 0
10192 -7946 9760 0
-10193 -10191 0
-10193 -10192 0
10193 10191 10192 0
-10188 -7945 0
-10188 9759 0
10188 7945 -9759 0
-10189 7945 0
-10189 -9759 0
10189 -7945 9759 0
-10190 -10188 0
-10190 -10189 0
10190 10188 10189 0
-10185 -7944 0
-10185 9758 0
10185 7944 -9758 0
-10186 7944 0
-10186 -9758 0
10186 -7944 9758 0
-10187 -10185 0
-10187 -10186 0
10187 10185 10186 0
-10182 -7943 0
-10182 9757 0
10182 7943 -9757 0
-10183 7943 0
-10183 -9757 0
10183 -7943 9757 0
-10184 -10182 0
-10184 -10183 0
10184 10182 10183 0
-10179 -7942 0
-10179 9756 0
10179 7942 -9756 0
-10180 7942 0
-10180 -9756 0
10180 -7942 9756 0
-10181 -10179 0
-10181 -10180 0
10181 10179 10180 0
-10176 -7941 0
-10176 9755 0
10176 7941 -9755 0
-10177 7941 0
-10177 -9755 0
10177 -7941 9755 0
-10178 -10176 0
-10178 -10177 0
10178 10176 10177 0
-10173 -7940 0
-10173 9754 0
10173 7940 -9754 0
-10174 7940 0
-10174 -9754 0
10174 -7940 9754 0
-10175 -10173 0
-10175 -10174 0
10175 10173 10174 0
-10170 -7939 0
-10170 9753 0
10170 7939 -9753 0
-10171 7939 0
-10171 -9753 0
10171 -7939 9753 0
-10172 -10170 0
-10172 -10171 0
10172 10170 10171 0
-10167 -7938 0
-10167 9752 0
10167 7938 -9752 0
-10168 7938 0
-10168 -9752 0
10168 -7938 9752 0
-10169 -10167 0
-10169 -10168 0
10169 10167 10168 0
-10164 -7937 0
-10164 9751 0
10164 7937 -9751 0
-10165 7937 0
-10165 -9751 0
10165 -7937 9751 0
-10166 -10164 0
-10166 -10165 0
10166 10164 10165 0
-10161 -7936 0
-10161 9750 0
10161 7936 -9750 0
-10162 7936 0
-10162 -9750 0
10162 -7936 9750 0
-10163 -10161 0
-10163 -10162 0
10163 10161 10162 0
-10158 -7935 0
-10158 9749 0
10158 7935 -9749 0
-10159 7935 0
-10159 -9749 0
10159 -7935 9749 0
-10160 -10158 0
-10160 -10159 0
10160 10158 10159 0
-10155 -7934 0
-10155 9748 0
10155 7934 -9748 0
-10156 7934 0
-10156 -9748 0
10156 -7934 9748 0
-10157 -10155 0
-10157 -10156 0
10157 10155 10156 0
-10152 -7933 0
-10152 9747 0
10152 7933 -9747 0
-10153 7933 0
-10153 -9747 0
10153 -7933 9747 0
-10154 -10152 0
-10154 -10153 0
10154 10152 10153 0
-10149 -7932 0
-10149 9746 0
10149 7932 -9746 0
-10150 7932 0
-10150 -9746 0
10150 -7932 9746 0
-10151 -10149 0
-10151 -10150 0
10151 10149 10150 0
-10146 -7931 0
-10146 9745 0
10146 7931 -9745 0
-10147 7931 0
-10147 -9745 0
10147 -7931 9745 0
-10148 -10146 0
-10148 -10147 0
10148 10146 10147 0
-10143 -7930 0
-10143 9744 0
10143 7930 -9744 0
-10144 7930 0
-10144 -9744 0
10144 -7930 9744 0
-10145 -10143 0
-10145 -10144 0
10145 10143 10144 0
-10140 -7929 0
-10140 9743 0
10140 7929 -9743 0
-10141 7929 0
-10141 -9743 0
10141 -7929 9743 0
-10142 -10140 0
-10142 -10141 0
10142 10140 10141 0
-10137 -7928 0
-10137 9742 0
10137 7928 -9742 0
-10138 7928 0
-10138 -9742 0
10138 -7928 9742 0
-10139 -10137 0
-10139 -10138 0
10139 10137 10138 0
-10134 -7927 0
-10134 9741 0
10134 7927 -9741 0
-10135 7927 0
-10135 -9741 0
10135 -7927 9741 0
-10136 -10134 0
-10136 -10135 0
10136 10134 10135 0
-10131 -7926 0
-10131 9740 0
10131 7926 -9740 0
-10132 7926 0
-10132 -9740 0
10132 -7926 9740 0
-10133 -10131 0
-10133 -10132 0
10133 10131 10132 0
-10128 -7925 0
-10128 9739 0
10128 7925 -9739 0
-10129 7925 0
-10129 -9739 0
10129 -7925 9739 0
-10130 -10128 0
-10130 -10129 0
10130 10128 10129 0
-10125 -7924 0
-10125 9738 0
10125 7924 -9738 0
-10126 7924 0
-10126 -9738 0
10126 -7924 9738 0
-10127 -10125 0
-10127 -10126 0
10127 10125 10126 0
-10122 -7923 0
-10122 9737 0
10122 7923 -9737 0
-10123 7923 0
-10123 -9737 0
10123 -7923 9737 0
-10124 -10122 0
-10124 -10123 0
10124 10122 10123 0
-10119 -7922 0
-10119 9736 0
10119 7922 -9736 0
-10120 7922 0
-10120 -9736 0
10120 -7922 9736 0
-10121 -10119 0
-10121 -10120 0
10121 10119 10120 0
-10116 -7921 0
-10116 9735 0
10116 7921 -9735 0
-10117 7921 0
-10117 -9735 0
10117 -7921 9735 0
-10118 -10116 0
-10118 -10117 0
10118 10116 10117 0
-10113 -7920 0
-10113 9734 0
10113 7920 -9734 0
-10114 7920 0
-10114 -9734 0
10114 -7920 9734 0
-10115 -10113 0
-10115 -10114 0
10115 10113 10114 0
-10110 -7919 0
-10110 9733 0
10110 7919 -9733 0
-10111 7919 0
-10111 -9733 0
10111 -7919 9733 0
-10112 -10110 0
-10112 -10111 0
10112 10110 10111 0
-10107 -7918 0
-10107 9732 0
10107 7918 -9732 0
-10108 7918 0
-10108 -9732 0
10108 -7918 9732 0
-10109 -10107 0
-10109 -10108 0
10109 10107 10108 0
-10104 -7917 0
-10104 9731 0
10104 7917 -9731 0
-10105 7917 0
-10105 -9731 0
10105 -7917 9731 0
-10106 -10104 0
-10106 -10105 0
10106 10104 10105 0
-10101 -7916 0
-10101 9730 0
10101 7916 -9730 0
-10102 7916 0
-10102 -9730 0
10102 -7916 9730 0
-10103 -10101 0
-10103 -10102 0
10103 10101 10102 0
-10098 -7915 0
-10098 9729 0
10098 7915 -9729 0
-10099 7915 0
-10099 -9729 0
10099 -7915 9729 0
-10100 -10098 0
-10100 -10099 0
10100 10098 10099 0
-10095 -7914 0
-10095 9728 0
10095 7914 -9728 0
-10096 7914 0
-10096 -9728 0
10096 -7914 9728 0
-10097 -10095 0
-10097 -10096 0
10097 10095 10096 0
-10092 -7913 0
-10092 9727 0
10092 7913 -9727 0
-10093 7913 0
-10093 -9727 0
10093 -7913 9727 0
-10094 -10092 0
-10094 -10093 0
10094 10092 10093 0
-10089 -7912 0
-10089 9726 0
10089 7912 -9726 0
-10090 7912 0
-10090 -9726 0
10090 -7912 9726 0
-10091 -10089 0
-10091 -10090 0
10091 10089 10090 0
-10086 -7911 0
-10086 9725 0
10086 7911 -9725 0
-10087 7911 0
-10087 -9725 0
10087 -7911 9725 0
-10088 -10086 0
-10088 -10087 0
10088 10086 10087 0
-10083 -7910 0
-10083 9724 0
10083 7910 -9724 0
-10084 7910 0
-10084 -9724 0
10084 -7910 9724 0
-10085 -10083 0
-10085 -10084 0
10085 10083 10084 0
-10080 -7909 0
-10080 9723 0
10080 7909 -9723 0
-10081 7909 0
-10081 -9723 0
10081 -7909 9723 0
-10082 -10080 0
-10082 -10081 0
10082 10080 10081 0
-10077 -7908 0
-10077 9722 0
10077 7908 -9722 0
-10078 7908 0
-10078 -9722 0
10078 -7908 9722 0
-10079 -10077 0
-10079 -10078 0
10079 10077 10078 0
-10074 -7907 0
-10074 9721 0
10074 7907 -9721 0
-10075 7907 0
-10075 -9721 0
10075 -7907 9721 0
-10076 -10074 0
-10076 -10075 0
10076 10074 10075 0
-10071 -7906 0
-10071 9720 0
10071 7906 -9720 0
-10072 7906 0
-10072 -9720 0
10072 -7906 9720 0
-10073 -10071 0
-10073 -10072 0
10073 10071 10072 0
-10068 -7905 0
-10068 9719 0
10068 7905 -9719 0
-10069 7905 0
-10069 -9719 0
10069 -7905 9719 0
-10070 -10068 0
-10070 -10069 0
10070 10068 10069 0
-10065 -7904 0
-10065 9718 0
10065 7904 -9718 0
-10066 7904 0
-10066 -9718 0
10066 -7904 9718 0
-10067 -10065 0
-10067 -10066 0
10067 10065 10066 0
-10062 -7903 0
-10062 9717 0
10062 7903 -9717 0
-10063 7903 0
-10063 -9717 0
10063 -7903 9717 0
-10064 -10062 0
-10064 -10063 0
10064 10062 10063 0
-10059 -7902 0
-10059 9716 0
10059 7902 -9716 0
-10060 7902 0
-10060 -9716 0
10060 -7902 9716 0
-10061 -10059 0
-10061 -10060 0
10061 10059 10060 0
-10056 -7901 0
-10056 9715 0
10056 7901 -9715 0
-10057 7901 0
-10057 -9715 0
10057 -7901 9715 0
-10058 -10056 0
-10058 -10057 0
10058 10056 10057 0
-10053 -7900 0
-10053 9714 0
10053 7900 -9714 0
-10054 7900 0
-10054 -9714 0
10054 -7900 9714 0
-10055 -10053 0
-10055 -10054 0
10055 10053 10054 0
-10050 -7899 0
-10050 9713 0
10050 7899 -9713 0
-10051 7899 0
-10051 -9713 0
10051 -7899 9713 0
-10052 -10050 0
-10052 -10051 0
10052 10050 10051 0
-10047 -7898 0
-10047 9712 0
10047 7898 -9712 0
-10048 7898 0
-10048 -9712 0
10048 -7898 9712 0
-10049 -10047 0
-10049 -10048 0
10049 10047 10048 0
-10044 -7897 0
-10044 9711 0
10044 7897 -9711 0
-10045 7897 0
-10045 -9711 0
10045 -7897 9711 0
-10046 -10044 0
-10046 -10045 0
10046 10044 10045 0
-10041 -7896 0
-10041 9710 0
10041 7896 -9710 0
-10042 7896 0
-10042 -9710 0
10042 -7896 9710 0
-10043 -10041 0
-10043 -10042 0
10043 10041 10042 0
-10038 -7895 0
-10038 9709 0
10038 7895 -9709 0
-10039 7895 0
-10039 -9709 0
10039 -7895 9709 0
-10040 -10038 0
-10040 -10039 0
10040 10038 10039 0
-10035 -7894 0
-10035 9708 0
10035 7894 -9708 0
-10036 7894 0
-10036 -9708 0
10036 -7894 9708 0
-10037 -10035 0
-10037 -10036 0
10037 10035 10036 0
-10032 -7893 0
-10032 9707 0
10032 7893 -9707 0
-10033 7893 0
-10033 -9707 0
10033 -7893 9707 0
-10034 -10032 0
-10034 -10033 0
10034 10032 10033 0
-10029 -7892 0
-10029 9706 0
10029 7892 -9706 0
-10030 7892 0
-10030 -9706 0
10030 -7892 9706 0
-10031 -10029 0
-10031 -10030 0
10031 10029 10030 0
-10026 -7891 0
-10026 9705 0
10026 7891 -9705 0
-10027 7891 0
-10027 -9705 0
10027 -7891 9705 0
-10028 -10026 0
-10028 -10027 0
10028 10026 10027 0
-10023 -7890 0
-10023 9704 0
10023 7890 -9704 0
-10024 7890 0
-10024 -9704 0
10024 -7890 9704 0
-10025 -10023 0
-10025 -10024 0
10025 10023 10024 0
-10020 -7889 0
-10020 9703 0
10020 7889 -9703 0
-10021 7889 0
-10021 -9703 0
10021 -7889 9703 0
-10022 -10020 0
-10022 -10021 0
10022 10020 10021 0
-10014 -7887 0
-10014 9701 0
10014 7887 -9701 0
-10015 7887 0
-10015 -9701 0
10015 -7887 9701 0
-10016 -10014 0
-10016 -10015 0
10016 10014 10015 0
-10017 -7888 0
-10017 9702 0
10017 7888 -9702 0
-10018 7888 0
-10018 -9702 0
10018 -7888 9702 0
-10019 -10017 0
-10019 -10018 0
10019 10017 10018 0
-10200 10016 0
-10200 10019 0
10200 -10016 -10019 0
-10201 10022 0
-10201 10200 0
10201 -10022 -10200 0
-10202 10025 0
-10202 10201 0
10202 -10025 -10201 0
-10203 10028 0
-10203 10202 0
10203 -10028 -10202 0
-10204 10031 0
-10204 10203 0
10204 -10031 -10203 0
-10205 10034 0
-10205 10204 0
10205 -10034 -10204 0
-10206 10037 0
-10206 10205 0
10206 -10037 -10205 0
-10207 10040 0
-10207 10206 0
10207 -10040 -10206 0
-10208 10043 0
-10208 10207 0
10208 -10043 -10207 0
-10209 10046 0
-10209 10208 0
10209 -10046 -10208 0
-10210 10049 0
-10210 10209 0
10210 -10049 -10209 0
-10211 10052 0
-10211 10210 0
10211 -10052 -10210 0
-10212 10055 0
-10212 10211 0
10212 -10055 -10211 0
-10213 10058 0
-10213 10212 0
10213 -10058 -10212 0
-10214 10061 0
-10214 10213 0
10214 -10061 -10213 0
-10215 10064 0
-10215 10214 0
10215 -10064 -10214 0
-10216 10067 0
-10216 10215 0
10216 -10067 -10215 0
-10217 10070 0
-10217 10216 0
10217 -10070 -10216 0
-10218 10073 0
-10218 10217 0
10218 -10073 -10217 0
-10219 10076 0
-10219 10218 0
10219 -10076 -10218 0
-10220 10079 0
-10220 10219 0
10220 -10079 -10219 0
-10221 10082 0
-10221 10220 0
10221 -10082 -10220 0
-10222 10085 0
-10222 10221 0
10222 -10085 -10221 0
-10223 10088 0
-10223 10222 0
10223 -10088 -10222 0
-10224 10091 0
-10224 10223 0
10224 -10091 -10223 0
-10225 10094 0
-10225 10224 0
10225 -10094 -10224 0
-10226 10097 0
-10226 10225 0
10226 -10097 -10225 0
-10227 10100 0
-10227 10226 0
10227 -10100 -10226 0
-10228 10103 0
-10228 10227 0
10228 -10103 -10227 0
-10229 10106 0
-10229 10228 0
10229 -10106 -10228 0
-10230 10109 0
-10230 10229 0
10230 -10109 -10229 0
-10231 10112 0
-10231 10230 0
10231 -10112 -10230 0
-10232 10115 0
-10232 10231 0
10232 -10115 -10231 0
-10233 10118 0
-10233 10232 0
10233 -10118 -10232 0
-10234 10121 0
-10234 10233 0
10234 -10121 -10233 0
-10235 10124 0
-10235 10234 0
10235 -10124 -10234 0
-10236 10127 0
-10236 10235 0
10236 -10127 -10235 0
-10237 10130 0
-10237 10236 0
10237 -10130 -10236 0
-10238 10133 0
-10238 10237 0
10238 -10133 -10237 0
-10239 10136 0
-10239 10238 0
10239 -10136 -10238 0
-10240 10139 0
-10240 10239 0
10240 -10139 -10239 0
-10241 10142 0
-10241 10240 0
10241 -10142 -10240 0
-10242 10145 0
-10242 10241 0
10242 -10145 -10241 0
-10243 10148 0
-10243 10242 0
10243 -10148 -10242 0
-10244 10151 0
-10244 10243 0
10244 -10151 -10243 0
-10245 10154 0
-10245 10244 0
10245 -10154 -10244 0
-10246 10157 0
-10246 10245 0
10246 -10157 -10245 0
-10247 10160 0
-10247 10246 0
10247 -10160 -10246 0
-10248 10163 0
-10248 10247 0
10248 -10163 -10247 0
-10249 10166 0
-10249 10248 0
10249 -10166 -10248 0
-10250 10169 0
-10250 10249 0
10250 -10169 -10249 0
-10251 10172 0
-10251 10250 0
10251 -10172 -10250 0
-10252 10175 0
-10252 10251 0
10252 -10175 -10251 0
-10253 10178 0
-10253 10252 0
10253 -10178 -10252 0
-10254 10181 0
-10254 10253 0
10254 -10181 -10253 0
-10255 10184 0
-10255 10254 0
10255 -10184 -10254 0
-10256 10187 0
-10256 10255 0
10256 -10187 -10255 0
-10257 10190 0
-10257 10256 0
10257 -10190 -10256 0
-10258 10193 0
-10258 10257 0
10258 -10193 -10257 0
-10259 10196 0
-10259 10258 0
10259 -10196 -10258 0
-10260 10199 0
-10260 10259 0
10260 -10199 -10259 0
-10261 -9763 0
-10261 10260 0
10261 9763 -10260 0
-10262 -7843 0
-10262 -10261 0
10262 7843 10261 0
-10263 10013 0
-10263 -10262 0
10263 -10013 10262 0
10327 -17193 0
-10327 17193 0
10326 -17192 0
-10326 17192 0
-10751 8510 0
-10751 8511 0
10751 -8510 -8511 0
-10744 8509 0
-10744 8510 0
10744 -8509 -8510 0
-10737 8508 0
-10737 8509 0
10737 -8508 -8509 0
-10730 8507 0
-10730 8508 0
10730 -8507 -8508 0
-10723 8506 0
-10723 8507 0
10723 -8506 -8507 0
-10716 8505 0
-10716 8506 0
10716 -8505 -8506 0
-10709 8504 0
-10709 8505 0
10709 -8504 -8505 0
-10702 8503 0
-10702 8504 0
10702 -8503 -8504 0
-10695 8502 0
-10695 8503 0
10695 -8502 -8503 0
-10688 8501 0
-10688 8502 0
10688 -8501 -8502 0
-10681 8500 0
-10681 8501 0
10681 -8500 -8501 0
-10674 8499 0
-10674 8500 0
10674 -8499 -8500 0
-10667 8498 0
-10667 8499 0
10667 -8498 -8499 0
-10660 8497 0
-10660 8498 0
10660 -8497 -8498 0
-10653 8496 0
-10653 8497 0
10653 -8496 -8497 0
-10646 8495 0
-10646 8496 0
10646 -8495 -8496 0
-10639 8494 0
-10639 8495 0
10639 -8494 -8495 0
-10632 8493 0
-10632 8494 0
10632 -8493 -8494 0
-10625 8492 0
-10625 8493 0
10625 -8492 -8493 0
-10618 8491 0
-10618 8492 0
10618 -8491 -8492 0
-10611 8490 0
-10611 8491 0
10611 -8490 -8491 0
-10604 8489 0
-10604 8490 0
10604 -8489 -8490 0
-10597 8488 0
-10597 8489 0
10597 -8488 -8489 0
-10590 8487 0
-10590 8488 0
10590 -8487 -8488 0
-10583 8486 0
-10583 8487 0
10583 -8486 -8487 0
-10576 8485 0
-10576 8486 0
10576 -8485 -8486 0
-10569 8484 0
-10569 8485 0
10569 -8484 -8485 0
-10562 8483 0
-10562 8484 0
10562 -8483 -8484 0
-10555 8482 0
-10555 8483 0
10555 -8482 -8483 0
-10548 8481 0
-10548 8482 0
10548 -8481 -8482 0
-10541 8480 0
-10541 8481 0
10541 -8480 -8481 0
-10534 8479 0
-10534 8480 0
10534 -8479 -8480 0
-10527 8478 0
-10527 8479 0
10527 -8478 -8479 0
-10520 8477 0
-10520 8478 0
10520 -8477 -8478 0
-10513 8476 0
-10513 8477 0
10513 -8476 -8477 0
-10506 8475 0
-10506 8476 0
10506 -8475 -8476 0
-10499 8474 0
-10499 8475 0
10499 -8474 -8475 0
-10492 8473 0
-10492 8474 0
10492 -8473 -8474 0
-10485 8472 0
-10485 8473 0
10485 -8472 -8473 0
-10478 8471 0
-10478 8472 0
10478 -8471 -8472 0
-10471 8470 0
-10471 8471 0
10471 -8470 -8471 0
-10464 8469 0
-10464 8470 0
10464 -8469 -8470 0
-10457 8468 0
-10457 8469 0
10457 -8468 -8469 0
-10450 8467 0
-10450 8468 0
10450 -8467 -8468 0
-10443 8466 0
-10443 8467 0
10443 -8466 -8467 0
-10436 8465 0
-10436 8466 0
10436 -8465 -8466 0
-10429 8464 0
-10429 8465 0
10429 -8464 -8465 0
-10422 8463 0
-10422 8464 0
10422 -8463 -8464 0
-10415 8462 0
-10415 8463 0
10415 -8462 -8463 0
-10408 8461 0
-10408 8462 0
10408 -8461 -8462 0
-10401 8460 0
-10401 8461 0
10401 -8460 -8461 0
-10394 8459 0
-10394 8460 0
10394 -8459 -8460 0
-10387 8458 0
-10387 8459 0
10387 -8458 -8459 0
-10380 8457 0
-10380 8458 0
10380 -8457 -8458 0
-10373 8456 0
-10373 8457 0
10373 -8456 -8457 0
-10366 8455 0
-10366 8456 0
10366 -8455 -8456 0
-10359 8454 0
-10359 8455 0
10359 -8454 -8455 0
-10352 8453 0
-10352 8454 0
10352 -8453 -8454 0
-10345 8452 0
-10345 8453 0
10345 -8452 -8453 0
-10338 8451 0
-10338 8452 0
10338 -8451 -8452 0
-10331 8450 0
-10331 8451 0
10331 -8450 -8451 0
-10328 8449 0
-10328 8450 0
10328 -8449 -8450 0
-10332 -8450 0
-10332 -8451 0
10332 8450 8451 0
-10333 -10331 0
-10333 -10332 0
10333 10331 10332 0
-10334 10328 0
-10334 10333 0
10334 -10328 -10333 0
-10337 -10331 0
-10337 -10334 0
10337 10331 10334 0
-10339 -8451 0
-10339 -8452 0
10339 8451 8452 0
-10340 -10338 0
-10340 -10339 0
10340 10338 10339 0
-10341 -10337 0
-10341 10340 0
10341 10337 -10340 0
-10344 -10338 0
-10344 -10341 0
10344 10338 10341 0
-10346 -8452 0
-10346 -8453 0
10346 8452 8453 0
-10347 -10345 0
-10347 -10346 0
10347 10345 10346 0
-10348 -10344 0
-10348 10347 0
10348 10344 -10347 0
-10351 -10345 0
-10351 -10348 0
10351 10345 10348 0
-10353 -8453 0
-10353 -8454 0
10353 8453 8454 0
-10354 -10352 0
-10354 -10353 0
10354 10352 10353 0
-10355 -10351 0
-10355 10354 0
10355 10351 -10354 0
-10358 -10352 0
-10358 -10355 0
10358 10352 10355 0
-10360 -8454 0
-10360 -8455 0
10360 8454 8455 0
-10361 -10359 0
-10361 -10360 0
10361 10359 10360 0
-10362 -10358 0
-10362 10361 0
10362 10358 -10361 0
-10365 -10359 0
-10365 -10362 0
10365 10359 10362 0
-10367 -8455 0
-10367 -8456 0
10367 8455 8456 0
-10368 -10366 0
-10368 -10367 0
10368 10366 10367 0
-10369 -10365 0
-10369 10368 0
10369 10365 -10368 0
-10372 -10366 0
-10372 -10369 0
10372 10366 10369 0
-10374 -8456 0
-10374 -8457 0
10374 8456 8457 0
-10375 -10373 0
-10375 -10374 0
10375 10373 10374 0
-10376 -10372 0
-10376 10375 0
10376 10372 -10375 0
-10379 -10373 0
-10379 -10376 0
10379 10373 10376 0
-10381 -8457 0
-10381 -8458 0
10381 8457 8458 0
-10382 -10380 0
-10382 -10381 0
10382 10380 10381 0
-10383 -10379 0
-10383 10382 0
10383 10379 -10382 0
-10386 -10380 0
-10386 -10383 0
10386 10380 10383 0
-10388 -8458 0
-10388 -8459 0
10388 8458 8459 0
-10389 -10387 0
-10389 -10388 0
10389 10387 10388 0
-10390 -10386 0
-10390 10389 0
10390 10386 -10389 0
-10393 -10387 0
-10393 -10390 0
10393 10387 10390 0
-10395 -8459 0
-10395 -8460 0
10395 8459 8460 0
-10396 -10394 0
-10396 -10395 0
10396 10394 10395 0
-10397 -10393 0
-10397 10396 0
10397 10393 -10396 0
-10400 -10394 0
-10400 -10397 0
10400 10394 10397 0
-10402 -8460 0
-10402 -8461 0
10402 8460 8461 0
-10403 -10401 0
-10403 -10402 0
10403 10401 10402 0
-10404 -10400 0
-10404 10403 0
10404 10400 -10403 0
-10407 -10401 0
-10407 -10404 0
10407 10401 10404 0
-10409 -8461 0
-10409 -8462 0
10409 8461 8462 0
-10410 -10408 0
-10410 -10409 0
10410 10408 10409 0
-10411 -10407 0
-10411 10410 0
10411 10407 -10410 0
-10414 -10408 0
-10414 -10411 0
10414 10408 10411 0
-10416 -8462 0
-10416 -8463 0
10416 8462 8463 0
-10417 -10415 0
-10417 -10416 0
10417 10415 10416 0
-10418 -10414 0
-10418 10417 0
10418 10414 -10417 0
-10421 -10415 0
-10421 -10418 0
10421 10415 10418 0
-10423 -8463 0
-10423 -8464 0
10423 8463 8464 0
-10424 -10422 0
-10424 -10423 0
10424 10422 10423 0
-10425 -10421 0
-10425 10424 0
10425 10421 -10424 0
-10428 -10422 0
-10428 -10425 0
10428 10422 10425 0
-10430 -8464 0
-10430 -8465 0
10430 8464 8465 0
-10431 -10429 0
-10431 -10430 0
10431 10429 10430 0
-10432 -10428 0
-10432 10431 0
10432 10428 -10431 0
-10435 -10429 0
-10435 -10432 0
10435 10429 10432 0
-10437 -8465 0
-10437 -8466 0
10437 8465 8466 0
-10438 -10436 0
-10438 -10437 0
10438 10436 10437 0
-10439 -10435 0
-10439 10438 0
10439 10435 -10438 0
-10442 -10436 0
-10442 -10439 0
10442 10436 10439 0
-10444 -8466 0
-10444 -8467 0
10444 8466 8467 0
-10445 -10443 0
-10445 -10444 0
10445 10443 10444 0
-10446 -10442 0
-10446 10445 0
10446 10442 -10445 0
-10449 -10443 0
-10449 -10446 0
10449 10443 10446 0
-10451 -8467 0
-10451 -8468 0
10451 8467 8468 0
-10452 -10450 0
-10452 -10451 0
10452 10450 10451 0
-10453 -10449 0
-10453 10452 0
10453 10449 -10452 0
-10456 -10450 0
-10456 -10453 0
10456 10450 10453 0
-10458 -8468 0
-10458 -8469 0
10458 8468 8469 0
-10459 -10457 0
-10459 -10458 0
10459 10457 10458 0
-10460 -10456 0
-10460 10459 0
10460 10456 -10459 0
-10463 -10457 0
-10463 -10460 0
10463 10457 10460 0
-10465 -8469 0
-10465 -8470 0
10465 8469 8470 0
-10466 -10464 0
-10466 -10465 0
10466 10464 10465 0
-10467 -10463 0
-10467 10466 0
10467 10463 -10466 0
-10470 -10464 0
-10470 -10467 0
10470 10464 10467 0
-10472 -8470 0
-10472 -8471 0
10472 8470 8471 0
-10473 -10471 0
-10473 -10472 0
10473 10471 10472 0
-10474 -10470 0
-10474 10473 0
10474 10470 -10473 0
-10477 -10471 0
-10477 -10474 0
10477 10471 10474 0
-10479 -8471 0
-10479 -8472 0
10479 8471 8472 0
-10480 -10478 0
-10480 -10479 0
10480 10478 10479 0
-10481 -10477 0
-10481 10480 0
10481 10477 -10480 0
-10484 -10478 0
-10484 -10481 0
10484 10478 10481 0
-10486 -8472 0
-10486 -8473 0
10486 8472 8473 0
-10487 -10485 0
-10487 -10486 0
10487 10485 10486 0
-10488 -10484 0
-10488 10487 0
10488 10484 -10487 0
-10491 -10485 0
-10491 -10488 0
10491 10485 10488 0
-10493 -8473 0
-10493 -8474 0
10493 8473 8474 0
-10494 -10492 0
-10494 -10493 0
10494 10492 10493 0
-10495 -10491 0
-10495 10494 0
10495 10491 -10494 0
-10498 -10492 0
-10498 -10495 0
10498 10492 10495 0
-10500 -8474 0
-10500 -8475 0
10500 8474 8475 0
-10501 -10499 0
-10501 -10500 0
10501 10499 10500 0
-10502 -10498 0
-10502 10501 0
10502 10498 -10501 0
-10505 -10499 0
-10505 -10502 0
10505 10499 10502 0
-10507 -8475 0
-10507 -8476 0
10507 8475 8476 0
-10508 -10506 0
-10508 -10507 0
10508 10506 10507 0
-10509 -10505 0
-10509 10508 0
10509 10505 -10508 0
-10512 -10506 0
-10512 -10509 0
10512 10506 10509 0
-10514 -8476 0
-10514 -8477 0
10514 8476 8477 0
-10515 -10513 0
-10515 -10514 0
10515 10513 10514 0
-10516 -10512 0
-10516 10515 0
10516 10512 -10515 0
-10519 -10513 0
-10519 -10516 0
10519 10513 10516 0
-10521 -8477 0
-10521 -8478 0
10521 8477 8478 0
-10522 -10520 0
-10522 -10521 0
10522 10520 10521 0
-10523 -10519 0
-10523 10522 0
10523 10519 -10522 0
-10526 -10520 0
-10526 -10523 0
10526 10520 10523 0
-10528 -8478 0
-10528 -8479 0
10528 8478 8479 0
-10529 -10527 0
-10529 -10528 0
10529 10527 10528 0
-10530 -10526 0
-10530 10529 0
10530 10526 -10529 0
-10533 -10527 0
-10533 -10530 0
10533 10527 10530 0
-10535 -8479 0
-10535 -8480 0
10535 8479 8480 0
-10536 -10534 0
-10536 -10535 0
10536 10534 10535 0
-10537 -10533 0
-10537 10536 0
10537 10533 -10536 0
-10540 -10534 0
-10540 -10537 0
10540 10534 10537 0
-10542 -8480 0
-10542 -8481 0
10542 8480 8481 0
-10543 -10541 0
-10543 -10542 0
10543 10541 10542 0
-10544 -10540 0
-10544 10543 0
10544 10540 -10543 0
-10547 -10541 0
-10547 -10544 0
10547 10541 10544 0
-10549 -8481 0
-10549 -8482 0
10549 8481 8482 0
-10550 -10548 0
-10550 -10549 0
10550 10548 10549 0
-10551 -10547 0
-10551 10550 0
10551 10547 -10550 0
-10554 -10548 0
-10554 -10551 0
10554 10548 10551 0
-10556 -8482 0
-10556 -8483 0
10556 8482 8483 0
-10557 -10555 0
-10557 -10556 0
10557 10555 10556 0
-10558 -10554 0
-10558 10557 0
10558 10554 -10557 0
-10561 -10555 0
-10561 -10558 0
10561 10555 10558 0
-10563 -8483 0
-10563 -8484 0
10563 8483 8484 0
-10564 -10562 0
-10564 -10563 0
10564 10562 10563 0
-10565 -10561 0
-10565 10564 0
10565 10561 -10564 0
-10568 -10562 0
-10568 -10565 0
10568 10562 10565 0
-10570 -8484 0
-10570 -8485 0
10570 8484 8485 0
-10571 -10569 0
-10571 -10570 0
10571 10569 10570 0
-10572 -10568 0
-10572 10571 0
10572 10568 -10571 0
-10575 -10569 0
-10575 -10572 0
10575 10569 10572 0
-10577 -8485 0
-10577 -8486 0
10577 8485 8486 0
-10578 -10576 0
-10578 -10577 0
10578 10576 10577 0
-10579 -10575 0
-10579 10578 0
10579 10575 -10578 0
-10582 -10576 0
-10582 -10579 0
10582 10576 10579 0
-10584 -8486 0
-10584 -8487 0
10584 8486 8487 0
-10585 -10583 0
-10585 -10584 0
10585 10583 10584 0
-10586 -10582 0
-10586 10585 0
10586 10582 -10585 0
-10589 -10583 0
-10589 -10586 0
10589 10583 10586 0
-10591 -8487 0
-10591 -8488 0
10591 8487 8488 0
-10592 -10590 0
-10592 -10591 0
10592 10590 10591 0
-10593 -10589 0
-10593 10592 0
10593 10589 -10592 0
-10596 -10590 0
-10596 -10593 0
10596 10590 10593 0
-10598 -8488 0
-10598 -8489 0
10598 8488 8489 0
-10599 -10597 0
-10599 -10598 0
10599 10597 10598 0
-10600 -10596 0
-10600 10599 0
10600 10596 -10599 0
-10603 -10597 0
-10603 -10600 0
10603 10597 10600 0
-10605 -8489 0
-10605 -8490 0
10605 8489 8490 0
-10606 -10604 0
-10606 -10605 0
10606 10604 10605 0
-10607 -10603 0
-10607 10606 0
10607 10603 -10606 0
-10610 -10604 0
-10610 -10607 0
10610 10604 10607 0
-10612 -8490 0
-10612 -8491 0
10612 8490 8491 0
-10613 -10611 0
-10613 -10612 0
10613 10611 10612 0
-10614 -10610 0
-10614 10613 0
10614 10610 -10613 0
-10617 -10611 0
-10617 -10614 0
10617 10611 10614 0
-10619 -8491 0
-10619 -8492 0
10619 8491 8492 0
-10620 -10618 0
-10620 -10619 0
10620 10618 10619 0
-10621 -10617 0
-10621 10620 0
10621 10617 -10620 0
-10624 -10618 0
-10624 -10621 0
10624 10618 10621 0
-10626 -8492 0
-10626 -8493 0
10626 8492 8493 0
-10627 -10625 0
-10627 -10626 0
10627 10625 10626 0
-10628 -10624 0
-10628 10627 0
10628 10624 -10627 0
-10631 -10625 0
-10631 -10628 0
10631 10625 10628 0
-10633 -8493 0
-10633 -8494 0
10633 8493 8494 0
-10634 -10632 0
-10634 -10633 0
10634 10632 10633 0
-10635 -10631 0
-10635 10634 0
10635 10631 -10634 0
-10638 -10632 0
-10638 -10635 0
10638 10632 10635 0
-10640 -8494 0
-10640 -8495 0
10640 8494 8495 0
-10641 -10639 0
-10641 -10640 0
10641 10639 10640 0
-10642 -10638 0
-10642 10641 0
10642 10638 -10641 0
-10645 -10639 0
-10645 -10642 0
10645 10639 10642 0
-10647 -8495 0
-10647 -8496 0
10647 8495 8496 0
-10648 -10646 0
-10648 -10647 0
10648 10646 10647 0
-10649 -10645 0
-10649 10648 0
10649 10645 -10648 0
-10652 -10646 0
-10652 -10649 0
10652 10646 10649 0
-10654 -8496 0
-10654 -8497 0
10654 8496 8497 0
-10655 -10653 0
-10655 -10654 0
10655 10653 10654 0
-10656 -10652 0
-10656 10655 0
10656 10652 -10655 0
-10659 -10653 0
-10659 -10656 0
10659 10653 10656 0
-10661 -8497 0
-10661 -8498 0
10661 8497 8498 0
-10662 -10660 0
-10662 -10661 0
10662 10660 10661 0
-10663 -10659 0
-10663 10662 0
10663 10659 -10662 0
-10666 -10660 0
-10666 -10663 0
10666 10660 10663 0
-10668 -8498 0
-10668 -8499 0
10668 8498 8499 0
-10669 -10667 0
-10669 -10668 0
10669 10667 10668 0
-10670 -10666 0
-10670 10669 0
10670 10666 -10669 0
-10673 -10667 0
-10673 -10670 0
10673 10667 10670 0
-10675 -8499 0
-10675 -8500 0
10675 8499 8500 0
-10676 -10674 0
-10676 -10675 0
10676 10674 10675 0
-10677 -10673 0
-10677 10676 0
10677 10673 -10676 0
-10680 -10674 0
-10680 -10677 0
10680 10674 10677 0
-10682 -8500 0
-10682 -8501 0
10682 8500 8501 0
-10683 -10681 0
-10683 -10682 0
10683 10681 10682 0
-10684 -10680 0
-10684 10683 0
10684 10680 -10683 0
-10687 -10681 0
-10687 -10684 0
10687 10681 10684 0
-10689 -8501 0
-10689 -8502 0
10689 8501 8502 0
-10690 -10688 0
-10690 -10689 0
10690 10688 10689 0
-10691 -10687 0
-10691 10690 0
10691 10687 -10690 0
-10694 -10688 0
-10694 -10691 0
10694 10688 10691 0
-10696 -8502 0
-10696 -8503 0
10696 8502 8503 0
-10697 -10695 0
-10697 -10696 0
10697 10695 10696 0
-10698 -10694 0
-10698 10697 0
10698 10694 -10697 0
-10701 -10695 0
-10701 -10698 0
10701 10695 10698 0
-10703 -8503 0
-10703 -8504 0
10703 8503 8504 0
-10704 -10702 0
-10704 -10703 0
10704 10702 10703 0
-10705 -10701 0
-10705 10704 0
10705 10701 -10704 0
-10708 -10702 0
-10708 -10705 0
10708 10702 10705 0
-10710 -8504 0
-10710 -8505 0
10710 8504 8505 0
-10711 -10709 0
-10711 -10710 0
10711 10709 10710 0
-10712 -10708 0
-10712 10711 0
10712 10708 -10711 0
-10715 -10709 0
-10715 -10712 0
10715 10709 10712 0
-10717 -8505 0
-10717 -8506 0
10717 8505 8506 0
-10718 -10716 0
-10718 -10717 0
10718 10716 10717 0
-10719 -10715 0
-10719 10718 0
10719 10715 -10718 0
-10722 -10716 0
-10722 -10719 0
10722 10716 10719 0
-10724 -8506 0
-10724 -8507 0
10724 8506 8507 0
-10725 -10723 0
-10725 -10724 0
10725 10723 10724 0
-10726 -10722 0
-10726 10725 0
10726 10722 -10725 0
-10729 -10723 0
-10729 -10726 0
10729 10723 10726 0
-10731 -8507 0
-10731 -8508 0
10731 8507 8508 0
-10732 -10730 0
-10732 -10731 0
10732 10730 10731 0
-10733 -10729 0
-10733 10732 0
10733 10729 -10732 0
-10736 -10730 0
-10736 -10733 0
10736 10730 10733 0
-10738 -8508 0
-10738 -8509 0
10738 8508 8509 0
-10739 -10737 0
-10739 -10738 0
10739 10737 10738 0
-10740 -10736 0
-10740 10739 0
10740 10736 -10739 0
-10743 -10737 0
-10743 -10740 0
10743 10737 10740 0
-10745 -8509 0
-10745 -8510 0
10745 8509 8510 0
-10746 -10744 0
-10746 -10745 0
10746 10744 10745 0
-10747 -10743 0
-10747 10746 0
10747 10743 -10746 0
-10750 -10744 0
-10750 -10747 0
10750 10744 10747 0
-10752 -8510 0
-10752 -8511 0
10752 8510 8511 0
-10753 -10751 0
-10753 -10752 0
10753 10751 10752 0
-10754 -10750 0
-10754 10753 0
10754 10750 -10753 0
-10757 -10751 0
-10757 -10754 0
10757 10751 10754 0
-10758 8511 0
-10758 8512 0
10758 -8511 -8512 0
-10759 -8511 0
-10759 -8512 0
10759 8511 8512 0
-10760 -10758 0
-10760 -10759 0
10760 10758 10759 0
-10761 -10757 0
-10761 10760 0
10761 10757 -10760 0
-10762 10757 0
-10762 -10760 0
10762 -10757 10760 0
-10763 -10761 0
-10763 -10762 0
10763 10761 10762 0
-10755 10750 0
-10755 -10753 0
10755 -10750 10753 0
-10756 -10754 0
-10756 -10755 0
10756 10754 10755 0
-10748 10743 0
-10748 -10746 0
10748 -10743 10746 0
-10749 -10747 0
-10749 -10748 0
10749 10747 10748 0
-10741 10736 0
-10741 -10739 0
10741 -10736 10739 0
-10742 -10740 0
-10742 -10741 0
10742 10740 10741 0
-10734 10729 0
-10734 -10732 0
10734 -10729 10732 0
-10735 -10733 0
-10735 -10734 0
10735 10733 10734 0
-10727 10722 0
-10727 -10725 0
10727 -10722 10725 0
-10728 -10726 0
-10728 -10727 0
10728 10726 10727 0
-10720 10715 0
-10720 -10718 0
10720 -10715 10718 0
-10721 -10719 0
-10721 -10720 0
10721 10719 10720 0
-10713 10708 0
-10713 -10711 0
10713 -10708 10711 0
-10714 -10712 0
-10714 -10713 0
10714 10712 10713 0
-10706 10701 0
-10706 -10704 0
10706 -10701 10704 0
-10707 -10705 0
-10707 -10706 0
10707 10705 10706 0
-10699 10694 0
-10699 -10697 0
10699 -10694 10697 0
-10700 -10698 0
-10700 -10699 0
10700 10698 10699 0
-10692 10687 0
-10692 -10690 0
10692 -10687 10690 0
-10693 -10691 0
-10693 -10692 0
10693 10691 10692 0
-10685 10680 0
-10685 -10683 0
10685 -10680 10683 0
-10686 -10684 0
-10686 -10685 0
10686 10684 10685 0
-10678 10673 0
-10678 -10676 0
10678 -10673 10676 0
-10679 -10677 0
-10679 -10678 0
10679 10677 10678 0
-10671 10666 0
-10671 -10669 0
10671 -10666 10669 0
-10672 -10670 0
-10672 -10671 0
10672 10670 10671 0
-10664 10659 0
-10664 -10662 0
10664 -10659 10662 0
-10665 -10663 0
-10665 -10664 0
10665 10663 10664 0
-10657 10652 0
-10657 -10655 0
10657 -10652 10655 0
-10658 -10656 0
-10658 -10657 0
10658 10656 10657 0
-10650 10645 0
-10650 -10648 0
10650 -10645 10648 0
-10651 -10649 0
-10651 -10650 0
10651 10649 10650 0
-10643 10638 0
-10643 -10641 0
10643 -10638 10641 0
-10644 -10642 0
-10644 -10643 0
10644 10642 10643 0
-10636 10631 0
-10636 -10634 0
10636 -10631 10634 0
-10637 -10635 0
-10637 -10636 0
10637 10635 10636 0
-10629 10624 0
-10629 -10627 0
10629 -10624 10627 0
-10630 -10628 0
-10630 -10629 0
10630 10628 10629 0
-10622 10617 0
-10622 -10620 0
10622 -10617 10620 0
-10623 -10621 0
-10623 -10622 0
10623 10621 10622 0
-10615 10610 0
-10615 -10613 0
10615 -10610 10613 0
-10616 -10614 0
-10616 -10615 0
10616 10614 10615 0
-10608 10603 0
-10608 -10606 0
10608 -10603 10606 0
-10609 -10607 0
-10609 -10608 0
10609 10607 10608 0
-10601 10596 0
-10601 -10599 0
10601 -10596 10599 0
-10602 -10600 0
-10602 -10601 0
10602 10600 10601 0
-10594 10589 0
-10594 -10592 0
10594 -10589 10592 0
-10595 -10593 0
-10595 -10594 0
10595 10593 10594 0
-10587 10582 0
-10587 -10585 0
10587 -10582 10585 0
-10588 -10586 0
-10588 -10587 0
10588 10586 10587 0
-10580 10575 0
-10580 -10578 0
10580 -10575 10578 0
-10581 -10579 0
-10581 -10580 0
10581 10579 10580 0
-10573 10568 0
-10573 -10571 0
10573 -10568 10571 0
-10574 -10572 0
-10574 -10573 0
10574 10572 10573 0
-10566 10561 0
-10566 -10564 0
10566 -10561 10564 0
-10567 -10565 0
-10567 -10566 0
10567 10565 10566 0
-10559 10554 0
-10559 -10557 0
10559 -10554 10557 0
-10560 -10558 0
-10560 -10559 0
10560 10558 10559 0
-10552 10547 0
-10552 -10550 0
10552 -10547 10550 0
-10553 -10551 0
-10553 -10552 0
10553 10551 10552 0
-10545 10540 0
-10545 -10543 0
10545 -10540 10543 0
-10546 -10544 0
-10546 -10545 0
10546 10544 10545 0
-10538 10533 0
-10538 -10536 0
10538 -10533 10536 0
-10539 -10537 0
-10539 -10538 0
10539 10537 10538 0
-10531 10526 0
-10531 -10529 0
10531 -10526 10529 0
-10532 -10530 0
-10532 -10531 0
10532 10530 10531 0
-10524 10519 0
-10524 -10522 0
10524 -10519 10522 0
-10525 -10523 0
-10525 -10524 0
10525 10523 10524 0
-10517 10512 0
-10517 -10515 0
10517 -10512 10515 0
-10518 -10516 0
-10518 -10517 0
10518 10516 10517 0
-10510 10505 0
-10510 -10508 0
10510 -10505 10508 0
-10511 -10509 0
-10511 -10510 0
10511 10509 10510 0
-10503 10498 0
-10503 -10501 0
10503 -10498 10501 0
-10504 -10502 0
-10504 -10503 0
10504 10502 10503 0
-10496 10491 0
-10496 -10494 0
10496 -10491 10494 0
-10497 -10495 0
-10497 -10496 0
10497 10495 10496 0
-10489 10484 0
-10489 -10487 0
10489 -10484 10487 0
-10490 -10488 0
-10490 -10489 0
10490 10488 10489 0
-10482 10477 0
-10482 -10480 0
10482 -10477 10480 0
-10483 -10481 0
-10483 -10482 0
10483 10481 10482 0
-10475 10470 0
-10475 -10473 0
10475 -10470 10473 0
-10476 -10474 0
-10476 -10475 0
10476 10474 10475 0
-10468 10463 0
-10468 -10466 0
10468 -10463 10466 0
-10469 -10467 0
-10469 -10468 0
10469 10467 10468 0
-10461 10456 0
-10461 -10459 0
10461 -10456 10459 0
-10462 -10460 0
-10462 -10461 0
10462 10460 10461 0
-10454 10449 0
-10454 -10452 0
10454 -10449 10452 0
-10455 -10453 0
-10455 -10454 0
10455 10453 10454 0
-10447 10442 0
-10447 -10445 0
10447 -10442 10445 0
-10448 -10446 0
-10448 -10447 0
10448 10446 10447 0
-10440 10435 0
-10440 -10438 0
10440 -10435 10438 0
-10441 -10439 0
-10441 -10440 0
10441 10439 10440 0
-10433 10428 0
-10433 -10431 0
10433 -10428 10431 0
-10434 -10432 0
-10434 -10433 0
10434 10432 10433 0
-10426 10421 0
-10426 -10424 0
10426 -10421 10424 0
-10427 -10425 0
-10427 -10426 0
10427 10425 10426 0
-10419 10414 0
-10419 -10417 0
10419 -10414 10417 0
-10420 -10418 0
-10420 -10419 0
10420 10418 10419 0
-10412 10407 0
-10412 -10410 0
10412 -10407 10410 0
-10413 -10411 0
-10413 -10412 0
10413 10411 10412 0
-10405 10400 0
-10405 -10403 0
10405 -10400 10403 0
-10406 -10404 0
-10406 -10405 0
10406 10404 10405 0
-10398 10393 0
-10398 -10396 0
10398 -10393 10396 0
-10399 -10397 0
-10399 -10398 0
10399 10397 10398 0
-10391 10386 0
-10391 -10389 0
10391 -10386 10389 0
-10392 -10390 0
-10392 -10391 0
10392 10390 10391 0
-10384 10379 0
-10384 -10382 0
10384 -10379 10382 0
-10385 -10383 0
-10385 -10384 0
10385 10383 10384 0
-10377 10372 0
-10377 -10375 0
10377 -10372 10375 0
-10378 -10376 0
-10378 -10377 0
10378 10376 10377 0
-10370 10365 0
-10370 -10368 0
10370 -10365 10368 0
-10371 -10369 0
-10371 -10370 0
10371 10369 10370 0
-10363 10358 0
-10363 -10361 0
10363 -10358 10361 0
-10364 -10362 0
-10364 -10363 0
10364 10362 10363 0
-10356 10351 0
-10356 -10354 0
10356 -10351 10354 0
-10357 -10355 0
-10357 -10356 0
10357 10355 10356 0
-10349 10344 0
-10349 -10347 0
10349 -10344 10347 0
-10350 -10348 0
-10350 -10349 0
10350 10348 10349 0
-10342 10337 0
-10342 -10340 0
10342 -10337 10340 0
-10343 -10341 0
-10343 -10342 0
10343 10341 10342 0
-10335 -10328 0
-10335 -10333 0
10335 10328 10333 0
-10336 -10334 0
-10336 -10335 0
10336 10334 10335 0
-10329 -8449 0
-10329 -8450 0
10329 8449 8450 0
-10330 -10328 0
-10330 -10329 0
10330 10328 10329 0
-10765 8449 0
-10765 10330 0
10765 -8449 -10330 0
-10768 10336 0
-10768 10765 0
10768 -10336 -10765 0
-10771 10343 0
-10771 10768 0
10771 -10343 -10768 0
-10774 10350 0
-10774 10771 0
10774 -10350 -10771 0
-10777 10357 0
-10777 10774 0
10777 -10357 -10774 0
-10780 10364 0
-10780 10777 0
10780 -10364 -10777 0
-10783 10371 0
-10783 10780 0
10783 -10371 -10780 0
-10786 10378 0
-10786 10783 0
10786 -10378 -10783 0
-10789 10385 0
-10789 10786 0
10789 -10385 -10786 0
-10792 10392 0
-10792 10789 0
10792 -10392 -10789 0
-10795 10399 0
-10795 10792 0
10795 -10399 -10792 0
-10798 10406 0
-10798 10795 0
10798 -10406 -10795 0
-10801 10413 0
-10801 10798 0
10801 -10413 -10798 0
-10804 10420 0
-10804 10801 0
10804 -10420 -10801 0
-10807 10427 0
-10807 10804 0
10807 -10427 -10804 0
-10810 10434 0
-10810 10807 0
10810 -10434 -10807 0
-10813 10441 0
-10813 10810 0
10813 -10441 -10810 0
-10816 10448 0
-10816 10813 0
10816 -10448 -10813 0
-10819 10455 0
-10819 10816 0
10819 -10455 -10816 0
-10822 10462 0
-10822 10819 0
10822 -10462 -10819 0
-10825 10469 0
-10825 10822 0
10825 -10469 -10822 0
-10828 10476 0
-10828 10825 0
10828 -10476 -10825 0
-10831 10483 0
-10831 10828 0
10831 -10483 -10828 0
-10834 10490 0
-10834 10831 0
10834 -10490 -10831 0
-10837 10497 0
-10837 10834 0
10837 -10497 -10834 0
-10840 10504 0
-10840 10837 0
10840 -10504 -10837 0
-10843 10511 0
-10843 10840 0
10843 -10511 -10840 0
-10846 10518 0
-10846 10843 0
10846 -10518 -10843 0
-10849 10525 0
-10849 10846 0
10849 -10525 -10846 0
-10852 10532 0
-10852 10849 0
10852 -10532 -10849 0
-10855 10539 0
-10855 10852 0
10855 -10539 -10852 0
-10858 10546 0
-10858 10855 0
10858 -10546 -10855 0
-10861 10553 0
-10861 10858 0
10861 -10553 -10858 0
-10864 10560 0
-10864 10861 0
10864 -10560 -10861 0
-10867 10567 0
-10867 10864 0
10867 -10567 -10864 0
-10870 10574 0
-10870 10867 0
10870 -10574 -10867 0
-10873 10581 0
-10873 10870 0
10873 -10581 -10870 0
-10876 10588 0
-10876 10873 0
10876 -10588 -10873 0
-10879 10595 0
-10879 10876 0
10879 -10595 -10876 0
-10882 10602 0
-10882 10879 0
10882 -10602 -10879 0
-10885 10609 0
-10885 10882 0
10885 -10609 -10882 0
-10888 10616 0
-10888 10885 0
10888 -10616 -10885 0
-10891 10623 0
-10891 10888 0
10891 -10623 -10888 0
-10894 10630 0
-10894 10891 0
10894 -10630 -10891 0
-10897 10637 0
-10897 10894 0
10897 -10637 -10894 0
-10900 10644 0
-10900 10897 0
10900 -10644 -10897 0
-10903 10651 0
-10903 10900 0
10903 -10651 -10900 0
-10906 10658 0
-10906 10903 0
10906 -10658 -10903 0
-10909 10665 0
-10909 10906 0
10909 -10665 -10906 0
-10912 10672 0
-10912 10909 0
10912 -10672 -10909 0
-10915 10679 0
-10915 10912 0
10915 -10679 -10912 0
-10918 10686 0
-10918 10915 0
10918 -10686 -10915 0
-10921 10693 0
-10921 10918 0
10921 -10693 -10918 0
-10924 10700 0
-10924 10921 0
10924 -10700 -10921 0
-10927 10707 0
-10927 10924 0
10927 -10707 -10924 0
-10930 10714 0
-10930 10927 0
10930 -10714 -10927 0
-10933 10721 0
-10933 10930 0
10933 -10721 -10930 0
-10936 10728 0
-10936 10933 0
10936 -10728 -10933 0
-10939 10735 0
-10939 10936 0
10939 -10735 -10936 0
-10942 10742 0
-10942 10939 0
10942 -10742 -10939 0
-10945 10749 0
-10945 10942 0
10945 -10749 -10942 0
-10948 10756 0
-10948 10945 0
10948 -10756 -10945 0
-10951 10763 0
-10951 10948 0
10951 -10763 -10948 0
-10952 -10763 0
-10952 -10948 0
10952 10763 10948 0
-10953 -10951 0
-10953 -10952 0
10953 10951 10952 0
-11140 10326 0
-11140 -10953 0
11140 -10326 10953 0
-11141 -10326 0
-11141 10953 0
11141 10326 -10953 0
-11142 -11140 0
-11142 -11141 0
11142 11140 11141 0
10325 -17191 0
-10325 17191 0
-10949 -10756 0
-10949 -10945 0
10949 10756 10945 0
-10950 -10948 0
-10950 -10949 0
10950 10948 10949 0
-11137 10325 0
-11137 -10950 0
11137 -10325 10950 0
-11138 -10325 0
-11138 10950 0
11138 10325 -10950 0
-11139 -11137 0
-11139 -11138 0
11139 11137 11138 0
10324 -17190 0
-10324 17190 0
-10946 -10749 0
-10946 -10942 0
10946 10749 10942 0
-10947 -10945 0
-10947 -10946 0
10947 10945 10946 0
-11134 10324 0
-11134 -10947 0
11134 -10324 10947 0
-11135 -10324 0
-11135 10947 0
11135 10324 -10947 0
-11136 -11134 0
-11136 -11135 0
11136 11134 11135 0
10323 -17189 0
-10323 17189 0
-10943 -10742 0
-10943 -10939 0
10943 10742 10939 0
-10944 -10942 0
-10944 -10943 0
10944 10942 10943 0
-11131 10323 0
-11131 -10944 0
11131 -10323 10944 0
-11132 -10323 0
-11132 10944 0
11132 10323 -10944 0
-11133 -11131 0
-11133 -11132 0
11133 11131 11132 0
10322 -17188 0
-10322 17188 0
-10940 -10735 0
-10940 -10936 0
10940 10735 10936 0
-10941 -10939 0
-10941 -10940 0
10941 10939 10940 0
-11128 10322 0
-11128 -10941 0
11128 -10322 10941 0
-11129 -10322 0
-11129 10941 0
11129 10322 -10941 0
-11130 -11128 0
-11130 -11129 0
11130 11128 11129 0
10321 -17187 0
-10321 17187 0
-10937 -10728 0
-10937 -10933 0
10937 10728 10933 0
-10938 -10936 0
-10938 -10937 0
10938 10936 10937 0
-11125 10321 0
-11125 -10938 0
11125 -10321 10938 0
-11126 -10321 0
-11126 10938 0
11126 10321 -10938 0
-11127 -11125 0
-11127 -11126 0
11127 11125 11126 0
10320 -17186 0
-10320 17186 0
-10934 -10721 0
-10934 -10930 0
10934 10721 10930 0
-10935 -10933 0
-10935 -10934 0
10935 10933 10934 0
-11122 10320 0
-11122 -10935 0
11122 -10320 10935 0
-11123 -10320 0
-11123 10935 0
11123 10320 -10935 0
-11124 -11122 0
-11124 -11123 0
11124 11122 11123 0
10319 -17185 0
-10319 17185 0
-10931 -10714 0
-10931 -10927 0
10931 10714 10927 0
-10932 -10930 0
-10932 -10931 0
10932 10930 10931 0
-11119 10319 0
-11119 -10932 0
11119 -10319 10932 0
-11120 -10319 0
-11120 10932 0
11120 10319 -10932 0
-11121 -11119 0
-11121 -11120 0
11121 11119 11120 0
10318 -17184 0
-10318 17184 0
-10928 -10707 0
-10928 -10924 0
10928 10707 10924 0
-10929 -10927 0
-10929 -10928 0
10929 10927 10928 0
-11116 10318 0
-11116 -10929 0
11116 -10318 10929 0
-11117 -10318 0
-11117 10929 0
11117 10318 -10929 0
-11118 -11116 0
-11118 -11117 0
11118 11116 11117 0
10317 -17183 0
-10317 17183 0
-10925 -10700 0
-10925 -10921 0
10925 10700 10921 0
-10926 -10924 0
-10926 -10925 0
10926 10924 10925 0
-11113 10317 0
-11113 -10926 0
11113 -10317 10926 0
-11114 -10317 0
-11114 10926 0
11114 10317 -10926 0
-11115 -11113 0
-11115 -11114 0
11115 11113 11114 0
10316 -17182 0
-10316 17182 0
-10922 -10693 0
-10922 -10918 0
10922 10693 10918 0
-10923 -10921 0
-10923 -10922 0
10923 10921 10922 0
-11110 10316 0
-11110 -10923 0
11110 -10316 10923 0
-11111 -10316 0
-11111 10923 0
11111 10316 -10923 0
-11112 -11110 0
-11112 -11111 0
11112 11110 11111 0
10315 -17181 0
-10315 17181 0
-10919 -10686 0
-10919 -10915 0
10919 10686 10915 0
-10920 -10918 0
-10920 -10919 0
10920 10918 10919 0
-11107 10315 0
-11107 -10920 0
11107 -10315 10920 0
-11108 -10315 0
-11108 10920 0
11108 10315 -10920 0
-11109 -11107 0
-11109 -11108 0
11109 11107 11108 0
10314 -17180 0
-10314 17180 0
-10916 -10679 0
-10916 -10912 0
10916 10679 10912 0
-10917 -10915 0
-10917 -10916 0
10917 10915 10916 0
-11104 10314 0
-11104 -10917 0
11104 -10314 10917 0
-11105 -10314 0
-11105 10917 0
11105 10314 -10917 0
-11106 -11104 0
-11106 -11105 0
11106 11104 11105 0
10313 -17179 0
-10313 17179 0
-10913 -10672 0
-10913 -10909 0
10913 10672 10909 0
-10914 -10912 0
-10914 -10913 0
10914 10912 10913 0
-11101 10313 0
-11101 -10914 0
11101 -10313 10914 0
-11102 -10313 0
-11102 10914 0
11102 10313 -10914 0
-11103 -11101 0
-11103 -11102 0
11103 11101 11102 0
10312 -17178 0
-10312 17178 0
-10910 -10665 0
-10910 -10906 0
10910 10665 10906 0
-10911 -10909 0
-10911 -10910 0
10911 10909 10910 0
-11098 10312 0
-11098 -10911 0
11098 -10312 10911 0
-11099 -10312 0
-11099 10911 0
11099 10312 -10911 0
-11100 -11098 0
-11100 -11099 0
11100 11098 11099 0
10311 -17177 0
-10311 17177 0
-10907 -10658 0
-10907 -10903 0
10907 10658 10903 0
-10908 -10906 0
-10908 -10907 0
10908 10906 10907 0
-11095 10311 0
-11095 -10908 0
11095 -10311 10908 0
-11096 -10311 0
-11096 10908 0
11096 10311 -10908 0
-11097 -11095 0
-11097 -11096 0
11097 11095 11096 0
10310 -17176 0
-10310 17176 0
-10904 -10651 0
-10904 -10900 0
10904 10651 10900 0
-10905 -10903 0
-10905 -10904 0
10905 10903 10904 0
-11092 10310 0
-11092 -10905 0
11092 -10310 10905 0
-11093 -10310 0
-11093 10905 0
11093 10310 -10905 0
-11094 -11092 0
-11094 -11093 0
11094 11092 11093 0
10309 -17175 0
-10309 17175 0
-10901 -10644 0
-10901 -10897 0
10901 10644 10897 0
-10902 -10900 0
-10902 -10901 0
10902 10900 10901 0
-11089 10309 0
-11089 -10902 0
11089 -10309 10902 0
-11090 -10309 0
-11090 10902 0
11090 10309 -10902 0
-11091 -11089 0
-11091 -11090 0
11091 11089 11090 0
10308 -17174 0
-10308 17174 0
-10898 -10637 0
-10898 -10894 0
10898 10637 10894 0
-10899 -10897 0
-10899 -10898 0
10899 10897 10898 0
-11086 10308 0
-11086 -10899 0
11086 -10308 10899 0
-11087 -10308 0
-11087 10899 0
11087 10308 -10899 0
-11088 -11086 0
-11088 -11087 0
11088 11086 11087 0
10307 -17173 0
-10307 17173 0
-10895 -10630 0
-10895 -10891 0
10895 10630 10891 0
-10896 -10894 0
-10896 -10895 0
10896 10894 10895 0
-11083 10307 0
-11083 -10896 0
11083 -10307 10896 0
-11084 -10307 0
-11084 10896 0
11084 10307 -10896 0
-11085 -11083 0
-11085 -11084 0
11085 11083 11084 0
10306 -17172 0
-10306 17172 0
-10892 -10623 0
-10892 -10888 0
10892 10623 10888 0
-10893 -10891 0
-10893 -10892 0
10893 10891 10892 0
-11080 10306 0
-11080 -10893 0
11080 -10306 10893 0
-11081 -10306 0
-11081 10893 0
11081 10306 -10893 0
-11082 -11080 0
-11082 -11081 0
11082 11080 11081 0
10305 -17171 0
-10305 17171 0
-10889 -10616 0
-10889 -10885 0
10889 10616 10885 0
-10890 -10888 0
-10890 -10889 0
10890 10888 10889 0
-11077 10305 0
-11077 -10890 0
11077 -10305 10890 0
-11078 -10305 0
-11078 10890 0
11078 10305 -10890 0
-11079 -11077 0
-11079 -11078 0
11079 11077 11078 0
10304 -17170 0
-10304 17170 0
-10886 -10609 0
-10886 -10882 0
10886 10609 10882 0
-10887 -10885 0
-10887 -10886 0
10887 10885 10886 0
-11074 10304 0
-11074 -10887 0
11074 -10304 10887 0
-11075 -10304 0
-11075 10887 0
11075 10304 -10887 0
-11076 -11074 0
-11076 -11075 0
11076 11074 11075 0
10303 -17169 0
-10303 17169 0
-10883 -10602 0
-10883 -10879 0
10883 10602 10879 0
-10884 -10882 0
-10884 -10883 0
10884 10882 10883 0
-11071 10303 0
-11071 -10884 0
11071 -10303 10884 0
-11072 -10303 0
-11072 10884 0
11072 10303 -10884 0
-11073 -11071 0
-11073 -11072 0
11073 11071 11072 0
10302 -17168 0
-10302 17168 0
-10880 -10595 0
-10880 -10876 0
10880 10595 10876 0
-10881 -10879 0
-10881 -10880 0
10881 10879 10880 0
-11068 10302 0
-11068 -10881 0
11068 -10302 10881 0
-11069 -10302 0
-11069 10881 0
11069 10302 -10881 0
-11070 -11068 0
-11070 -11069 0
11070 11068 11069 0
10301 -17167 0
-10301 17167 0
-10877 -10588 0
-10877 -10873 0
10877 10588 10873 0
-10878 -10876 0
-10878 -10877 0
10878 10876 10877 0
-11065 10301 0
-11065 -10878 0
11065 -10301 10878 0
-11066 -10301 0
-11066 10878 0
11066 10301 -10878 0
-11067 -11065 0
-11067 -11066 0
11067 11065 11066 0
10300 -17166 0
-10300 17166 0
-10874 -10581 0
-10874 -10870 0
10874 10581 10870 0
-10875 -10873 0
-10875 -10874 0
10875 10873 10874 0
-11062 10300 0
-11062 -10875 0
11062 -10300 10875 0
-11063 -10300 0
-11063 10875 0
11063 10300 -10875 0
-11064 -11062 0
-11064 -11063 0
11064 11062 11063 0
10299 -17165 0
-10299 17165 0
-10871 -10574 0
-10871 -10867 0
10871 10574 10867 0
-10872 -10870 0
-10872 -10871 0
10872 10870 10871 0
-11059 10299 0
-11059 -10872 0
11059 -10299 10872 0
-11060 -10299 0
-11060 10872 0
11060 10299 -10872 0
-11061 -11059 0
-11061 -11060 0
11061 11059 11060 0
10298 -17164 0
-10298 17164 0
-10868 -10567 0
-10868 -10864 0
10868 10567 10864 0
-10869 -10867 0
-10869 -10868 0
10869 10867 10868 0
-11056 10298 0
-11056 -10869 0
11056 -10298 10869 0
-11057 -10298 0
-11057 10869 0
11057 10298 -10869 0
-11058 -11056 0
-11058 -11057 0
11058 11056 11057 0
10297 -17163 0
-10297 17163 0
-10865 -10560 0
-10865 -10861 0
10865 10560 10861 0
-10866 -10864 0
-10866 -10865 0
10866 10864 10865 0
-11053 10297 0
-11053 -10866 0
11053 -10297 10866 0
-11054 -10297 0
-11054 10866 0
11054 10297 -10866 0
-11055 -11053 0
-11055 -11054 0
11055 11053 11054 0
10296 -17162 0
-10296 17162 0
-10862 -10553 0
-10862 -10858 0
10862 10553 10858 0
-10863 -10861 0
-10863 -10862 0
10863 10861 10862 0
-11050 10296 0
-11050 -10863 0
11050 -10296 10863 0
-11051 -10296 0
-11051 10863 0
11051 10296 -10863 0
-11052 -11050 0
-11052 -11051 0
11052 11050 11051 0
10295 -17161 0
-10295 17161 0
-10859 -10546 0
-10859 -10855 0
10859 10546 10855 0
-10860 -10858 0
-10860 -10859 0
10860 10858 10859 0
-11047 10295 0
-11047 -10860 0
11047 -10295 10860 0
-11048 -10295 0
-11048 10860 0
11048 10295 -10860 0
-11049 -11047 0
-11049 -11048 0
11049 11047 11048 0
10294 -17160 0
-10294 17160 0
-10856 -10539 0
-10856 -10852 0
10856 10539 10852 0
-10857 -10855 0
-10857 -10856 0
10857 10855 10856 0
-11044 10294 0
-11044 -10857 0
11044 -10294 10857 0
-11045 -10294 0
-11045 10857 0
11045 10294 -10857 0
-11046 -11044 0
-11046 -11045 0
11046 11044 11045 0
10293 -17159 0
-10293 17159 0
-10853 -10532 0
-10853 -10849 0
10853 10532 10849 0
-10854 -10852 0
-10854 -10853 0
10854 10852 10853 0
-11041 10293 0
-11041 -10854 0
11041 -10293 10854 0
-11042 -10293 0
-11042 10854 0
11042 10293 -10854 0
-11043 -11041 0
-11043 -11042 0
11043 11041 11042 0
10292 -17158 0
-10292 17158 0
-10850 -10525 0
-10850 -10846 0
10850 10525 10846 0
-10851 -10849 0
-10851 -10850 0
10851 10849 10850 0
-11038 10292 0
-11038 -10851 0
11038 -10292 10851 0
-11039 -10292 0
-11039 10851 0
11039 10292 -10851 0
-11040 -11038 0
-11040 -11039 0
11040 11038 11039 0
10291 -17157 0
-10291 17157 0
-10847 -10518 0
-10847 -10843 0
10847 10518 10843 0
-10848 -10846 0
-10848 -10847 0
10848 10846 10847 0
-11035 10291 0
-11035 -10848 0
11035 -10291 10848 0
-11036 -10291 0
-11036 10848 0
11036 10291 -10848 0
-11037 -11035 0
-11037 -11036 0
11037 11035 11036 0
10290 -17156 0
-10290 17156 0
-10844 -10511 0
-10844 -10840 0
10844 10511 10840 0
-10845 -10843 0
-10845 -10844 0
10845 10843 10844 0
-11032 10290 0
-11032 -10845 0
11032 -10290 10845 0
-11033 -10290 0
-11033 10845 0
11033 10290 -10845 0
-11034 -11032 0
-11034 -11033 0
11034 11032 11033 0
10289 -17155 0
-10289 17155 0
-10841 -10504 0
-10841 -10837 0
10841 10504 10837 0
-10842 -10840 0
-10842 -10841 0
10842 10840 10841 0
-11029 10289 0
-11029 -10842 0
11029 -10289 10842 0
-11030 -10289 0
-11030 10842 0
11030 10289 -10842 0
-11031 -11029 0
-11031 -11030 0
11031 11029 11030 0
10288 -17154 0
-10288 17154 0
-10838 -10497 0
-10838 -10834 0
10838 10497 10834 0
-10839 -10837 0
-10839 -10838 0
10839 10837 10838 0
-11026 10288 0
-11026 -10839 0
11026 -10288 10839 0
-11027 -10288 0
-11027 10839 0
11027 10288 -10839 0
-11028 -11026 0
-11028 -11027 0
11028 11026 11027 0
10287 -17153 0
-10287 17153 0
-10835 -10490 0
-10835 -10831 0
10835 10490 10831 0
-10836 -10834 0
-10836 -10835 0
10836 10834 10835 0
-11023 10287 0
-11023 -10836 0
11023 -10287 10836 0
-11024 -10287 0
-11024 10836 0
11024 10287 -10836 0
-11025 -11023 0
-11025 -11024 0
11025 11023 11024 0
10286 -17152 0
-10286 17152 0
-10832 -10483 0
-10832 -10828 0
10832 10483 10828 0
-10833 -10831 0
-10833 -10832 0
10833 10831 10832 0
-11020 10286 0
-11020 -10833 0
11020 -10286 10833 0
-11021 -10286 0
-11021 10833 0
11021 10286 -10833 0
-11022 -11020 0
-11022 -11021 0
11022 11020 11021 0
10285 -17151 0
-10285 17151 0
-10829 -10476 0
-10829 -10825 0
10829 10476 10825 0
-10830 -10828 0
-10830 -10829 0
10830 10828 10829 0
-11017 10285 0
-11017 -10830 0
11017 -10285 10830 0
-11018 -10285 0
-11018 10830 0
11018 10285 -10830 0
-11019 -11017 0
-11019 -11018 0
11019 11017 11018 0
10284 -17150 0
-10284 17150 0
-10826 -10469 0
-10826 -10822 0
10826 10469 10822 0
-10827 -10825 0
-10827 -10826 0
10827 10825 10826 0
-11014 10284 0
-11014 -10827 0
11014 -10284 10827 0
-11015 -10284 0
-11015 10827 0
11015 10284 -10827 0
-11016 -11014 0
-11016 -11015 0
11016 11014 11015 0
10283 -17149 0
-10283 17149 0
-10823 -10462 0
-10823 -10819 0
10823 10462 10819 0
-10824 -10822 0
-10824 -10823 0
10824 10822 10823 0
-11011 10283 0
-11011 -10824 0
11011 -10283 10824 0
-11012 -10283 0
-11012 10824 0
11012 10283 -10824 0
-11013 -11011 0
-11013 -11012 0
11013 11011 11012 0
10282 -17148 0
-10282 17148 0
-10820 -10455 0
-10820 -10816 0
10820 10455 10816 0
-10821 -10819 0
-10821 -10820 0
10821 10819 10820 0
-11008 10282 0
-11008 -10821 0
11008 -10282 10821 0
-11009 -10282 0
-11009 10821 0
11009 10282 -10821 0
-11010 -11008 0
-11010 -11009 0
11010 11008 11009 0
10281 -17147 0
-10281 17147 0
-10817 -10448 0
-10817 -10813 0
10817 10448 10813 0
-10818 -10816 0
-10818 -10817 0
10818 10816 10817 0
-11005 10281 0
-11005 -10818 0
11005 -10281 10818 0
-11006 -10281 0
-11006 10818 0
11006 10281 -10818 0
-11007 -11005 0
-11007 -11006 0
11007 11005 11006 0
10280 -17146 0
-10280 17146 0
-10814 -10441 0
-10814 -10810 0
10814 10441 10810 0
-10815 -10813 0
-10815 -10814 0
10815 10813 10814 0
-11002 10280 0
-11002 -10815 0
11002 -10280 10815 0
-11003 -10280 0
-11003 10815 0
11003 10280 -10815 0
-11004 -11002 0
-11004 -11003 0
11004 11002 11003 0
10279 -17145 0
-10279 17145 0
-10811 -10434 0
-10811 -10807 0
10811 10434 10807 0
-10812 -10810 0
-10812 -10811 0
10812 10810 10811 0
-10999 10279 0
-10999 -10812 0
10999 -10279 10812 0
-11000 -10279 0
-11000 10812 0
11000 10279 -10812 0
-11001 -10999 0
-11001 -11000 0
11001 10999 11000 0
10278 -17144 0
-10278 17144 0
-10808 -10427 0
-10808 -10804 0
10808 10427 10804 0
-10809 -10807 0
-10809 -10808 0
10809 10807 10808 0
-10996 10278 0
-10996 -10809 0
10996 -10278 10809 0
-10997 -10278 0
-10997 10809 0
10997 10278 -10809 0
-10998 -10996 0
-10998 -10997 0
10998 10996 10997 0
10277 -17143 0
-10277 17143 0
-10805 -10420 0
-10805 -10801 0
10805 10420 10801 0
-10806 -10804 0
-10806 -10805 0
10806 10804 10805 0
-10993 10277 0
-10993 -10806 0
10993 -10277 10806 0
-10994 -10277 0
-10994 10806 0
10994 10277 -10806 0
-10995 -10993 0
-10995 -10994 0
10995 10993 10994 0
10276 -17142 0
-10276 17142 0
-10802 -10413 0
-10802 -10798 0
10802 10413 10798 0
-10803 -10801 0
-10803 -10802 0
10803 10801 10802 0
-10990 10276 0
-10990 -10803 0
10990 -10276 10803 0
-10991 -10276 0
-10991 10803 0
10991 10276 -10803 0
-10992 -10990 0
-10992 -10991 0
10992 10990 10991 0
10275 -17141 0
-10275 17141 0
-10799 -10406 0
-10799 -10795 0
10799 10406 10795 0
-10800 -10798 0
-10800 -10799 0
10800 10798 10799 0
-10987 10275 0
-10987 -10800 0
10987 -10275 10800 0
-10988 -10275 0
-10988 10800 0
10988 10275 -10800 0
-10989 -10987 0
-10989 -10988 0
10989 10987 10988 0
10274 -17140 0
-10274 17140 0
-10796 -10399 0
-10796 -10792 0
10796 10399 10792 0
-10797 -10795 0
-10797 -10796 0
10797 10795 10796 0
-10984 10274 0
-10984 -10797 0
10984 -10274 10797 0
-10985 -10274 0
-10985 10797 0
10985 10274 -10797 0
-10986 -10984 0
-10986 -10985 0
10986 10984 10985 0
10273 -17139 0
-10273 17139 0
-10793 -10392 0
-10793 -10789 0
10793 10392 10789 0
-10794 -10792 0
-10794 -10793 0
10794 10792 10793 0
-10981 10273 0
-10981 -10794 0
10981 -10273 10794 0
-10982 -10273 0
-10982 10794 0
10982 10273 -10794 0
-10983 -10981 0
-10983 -10982 0
10983 10981 10982 0
10272 -17138 0
-10272 17138 0
-10790 -10385 0
-10790 -10786 0
10790 10385 10786 0
-10791 -10789 0
-10791 -10790 0
10791 10789 10790 0
-10978 10272 0
-10978 -10791 0
10978 -10272 10791 0
-10979 -10272 0
-10979 10791 0
10979 10272 -10791 0
-10980 -10978 0
-10980 -10979 0
10980 10978 10979 0
10271 -17137 0
-10271 17137 0
-10787 -10378 0
-10787 -10783 0
10787 10378 10783 0
-10788 -10786 0
-10788 -10787 0
10788 10786 10787 0
-10975 10271 0
-10975 -10788 0
10975 -10271 10788 0
-10976 -10271 0
-10976 10788 0
10976 10271 -10788 0
-10977 -10975 0
-10977 -10976 0
10977 10975 10976 0
10270 -17136 0
-10270 17136 0
-10784 -10371 0
-10784 -10780 0
10784 10371 10780 0
-10785 -10783 0
-10785 -10784 0
10785 10783 10784 0
-10972 10270 0
-10972 -10785 0
10972 -10270 10785 0
-10973 -10270 0
-10973 10785 0
10973 10270 -10785 0
-10974 -10972 0
-10974 -10973 0
10974 10972 10973 0
10269 -17135 0
-10269 17135 0
-10781 -10364 0
-10781 -10777 0
10781 10364 10777 0
-10782 -10780 0
-10782 -10781 0
10782 10780 10781 0
-10969 10269 0
-10969 -10782 0
10969 -10269 10782 0
-10970 -10269 0
-10970 10782 0
10970 10269 -10782 0
-10971 -10969 0
-10971 -10970 0
10971 10969 10970 0
10268 -17134 0
-10268 17134 0
-10778 -10357 0
-10778 -10774 0
10778 10357 10774 0
-10779 -10777 0
-10779 -10778 0
10779 10777 10778 0
-10966 10268 0
-10966 -10779 0
10966 -10268 10779 0
-10967 -10268 0
-10967 10779 0
10967 10268 -10779 0
-10968 -10966 0
-10968 -10967 0
10968 10966 10967 0
10267 -17133 0
-10267 17133 0
-10775 -10350 0
-10775 -10771 0
10775 10350 10771 0
-10776 -10774 0
-10776 -10775 0
10776 10774 10775 0
-10963 10267 0
-10963 -10776 0
10963 -10267 10776 0
-10964 -10267 0
-10964 10776 0
10964 10267 -10776 0
-10965 -10963 0
-10965 -10964 0
10965 10963 10964 0
10266 -17132 0
-10266 17132 0
-10772 -10343 0
-10772 -10768 0
10772 10343 10768 0
-10773 -10771 0
-10773 -10772 0
10773 10771 10772 0
-10960 10266 0
-10960 -10773 0
10960 -10266 10773 0
-10961 -10266 0
-10961 10773 0
10961 10266 -10773 0
-10962 -10960 0
-10962 -10961 0
10962 10960 10961 0
10264 -17130 0
-10264 17130 0
-10766 -8449 0
-10766 -10330 0
10766 8449 10330 0
-10767 -10765 0
-10767 -10766 0
10767 10765 10766 0
-10954 10264 0
-10954 -10767 0
10954 -10264 10767 0
-10955 -10264 0
-10955 10767 0
10955 10264 -10767 0
-10956 -10954 0
-10956 -10955 0
10956 10954 10955 0
10265 -17131 0
-10265 17131 0
-10769 -10336 0
-10769 -10765 0
10769 10336 10765 0
-10770 -10768 0
-10770 -10769 0
10770 10768 10769 0
-10957 10265 0
-10957 -10770 0
10957 -10265 10770 0
-10958 -10265 0
-10958 10770 0
10958 10265 -10770 0
-10959 -10957 0
-10959 -10958 0
10959 10957 10958 0
-11143 10956 0
-11143 10959 0
11143 -10956 -10959 0
-11144 10962 0
-11144 11143 0
11144 -10962 -11143 0
-11145 10965 0
-11145 11144 0
11145 -10965 -11144 0
-11146 10968 0
-11146 11145 0
11146 -10968 -11145 0
-11147 10971 0
-11147 11146 0
11147 -10971 -11146 0
-11148 10974 0
-11148 11147 0
11148 -10974 -11147 0
-11149 10977 0
-11149 11148 0
11149 -10977 -11148 0
-11150 10980 0
-11150 11149 0
11150 -10980 -11149 0
-11151 10983 0
-11151 11150 0
11151 -10983 -11150 0
-11152 10986 0
-11152 11151 0
11152 -10986 -11151 0
-11153 10989 0
-11153 11152 0
11153 -10989 -11152 0
-11154 10992 0
-11154 11153 0
11154 -10992 -11153 0
-11155 10995 0
-11155 11154 0
11155 -10995 -11154 0
-11156 10998 0
-11156 11155 0
11156 -10998 -11155 0
-11157 11001 0
-11157 11156 0
11157 -11001 -11156 0
-11158 11004 0
-11158 11157 0
11158 -11004 -11157 0
-11159 11007 0
-11159 11158 0
11159 -11007 -11158 0
-11160 11010 0
-11160 11159 0
11160 -11010 -11159 0
-11161 11013 0
-11161 11160 0
11161 -11013 -11160 0
-11162 11016 0
-11162 11161 0
11162 -11016 -11161 0
-11163 11019 0
-11163 11162 0
11163 -11019 -11162 0
-11164 11022 0
-11164 11163 0
11164 -11022 -11163 0
-11165 11025 0
-11165 11164 0
11165 -11025 -11164 0
-11166 11028 0
-11166 11165 0
11166 -11028 -11165 0
-11167 11031 0
-11167 11166 0
11167 -11031 -11166 0
-11168 11034 0
-11168 11167 0
11168 -11034 -11167 0
-11169 11037 0
-11169 11168 0
11169 -11037 -11168 0
-11170 11040 0
-11170 11169 0
11170 -11040 -11169 0
-11171 11043 0
-11171 11170 0
11171 -11043 -11170 0
-11172 11046 0
-11172 11171 0
11172 -11046 -11171 0
-11173 11049 0
-11173 11172 0
11173 -11049 -11172 0
-11174 11052 0
-11174 11173 0
11174 -11052 -11173 0
-11175 11055 0
-11175 11174 0
11175 -11055 -11174 0
-11176 11058 0
-11176 11175 0
11176 -11058 -11175 0
-11177 11061 0
-11177 11176 0
11177 -11061 -11176 0
-11178 11064 0
-11178 11177 0
11178 -11064 -11177 0
-11179 11067 0
-11179 11178 0
11179 -11067 -11178 0
-11180 11070 0
-11180 11179 0
11180 -11070 -11179 0
-11181 11073 0
-11181 11180 0
11181 -11073 -11180 0
-11182 11076 0
-11182 11181 0
11182 -11076 -11181 0
-11183 11079 0
-11183 11182 0
11183 -11079 -11182 0
-11184 11082 0
-11184 11183 0
11184 -11082 -11183 0
-11185 11085 0
-11185 11184 0
11185 -11085 -11184 0
-11186 11088 0
-11186 11185 0
11186 -11088 -11185 0
-11187 11091 0
-11187 11186 0
11187 -11091 -11186 0
-11188 11094 0
-11188 11187 0
11188 -11094 -11187 0
-11189 11097 0
-11189 11188 0
11189 -11097 -11188 0
-11190 11100 0
-11190 11189 0
11190 -11100 -11189 0
-11191 11103 0
-11191 11190 0
11191 -11103 -11190 0
-11192 11106 0
-11192 11191 0
11192 -11106 -11191 0
-11193 11109 0
-11193 11192 0
11193 -11109 -11192 0
-11194 11112 0
-11194 11193 0
11194 -11112 -11193 0
-11195 11115 0
-11195 11194 0
11195 -11115 -11194 0
-11196 11118 0
-11196 11195 0
11196 -11118 -11195 0
-11197 11121 0
-11197 11196 0
11197 -11121 -11196 0
-11198 11124 0
-11198 11197 0
11198 -11124 -11197 0
-11199 11127 0
-11199 11198 0
11199 -11127 -11198 0
-11200 11130 0
-11200 11199 0
11200 -11130 -11199 0
-11201 11133 0
-11201 11200 0
11201 -11133 -11200 0
-11202 11136 0
-11202 11201 0
11202 -11136 -11201 0
-11203 11139 0
-11203 11202 0
11203 -11139 -11202 0
-11204 11142 0
-11204 11203 0
11204 -11142 -11203 0
-11205 -10327 0
-11205 11204 0
11205 10327 -11204 0
-11206 9658 0
-11206 -11205 0
11206 -9658 11205 0
-11207 10263 0
-11207 -11206 0
11207 -10263 11206 0
-11394 -9763 0
-11394 10326 0
11394 9763 -10326 0
-11395 9763 0
-11395 -10326 0
11395 -9763 10326 0
-11396 -11394 0
-11396 -11395 0
11396 11394 11395 0
-11391 -9762 0
-11391 10325 0
11391 9762 -10325 0
-11392 9762 0
-11392 -10325 0
11392 -9762 10325 0
-11393 -11391 0
-11393 -11392 0
11393 11391 11392 0
-11388 -9761 0
-11388 10324 0
11388 9761 -10324 0
-11389 9761 0
-11389 -10324 0
11389 -9761 10324 0
-11390 -11388 0
-11390 -11389 0
11390 11388 11389 0
-11385 -9760 0
-11385 10323 0
11385 9760 -10323 0
-11386 9760 0
-11386 -10323 0
11386 -9760 10323 0
-11387 -11385 0
-11387 -11386 0
11387 11385 11386 0
-11382 -9759 0
-11382 10322 0
11382 9759 -10322 0
-11383 9759 0
-11383 -10322 0
11383 -9759 10322 0
-11384 -11382 0
-11384 -11383 0
11384 11382 11383 0
-11379 -9758 0
-11379 10321 0
11379 9758 -10321 0
-11380 9758 0
-11380 -10321 0
11380 -9758 10321 0
-11381 -11379 0
-11381 -11380 0
11381 11379 11380 0
-11376 -9757 0
-11376 10320 0
11376 9757 -10320 0
-11377 9757 0
-11377 -10320 0
11377 -9757 10320 0
-11378 -11376 0
-11378 -11377 0
11378 11376 11377 0
-11373 -9756 0
-11373 10319 0
11373 9756 -10319 0
-11374 9756 0
-11374 -10319 0
11374 -9756 10319 0
-11375 -11373 0
-11375 -11374 0
11375 11373 11374 0
-11370 -9755 0
-11370 10318 0
11370 9755 -10318 0
-11371 9755 0
-11371 -10318 0
11371 -9755 10318 0
-11372 -11370 0
-11372 -11371 0
11372 11370 11371 0
-11367 -9754 0
-11367 10317 0
11367 9754 -10317 0
-11368 9754 0
-11368 -10317 0
11368 -9754 10317 0
-11369 -11367 0
-11369 -11368 0
11369 11367 11368 0
-11364 -9753 0
-11364 10316 0
11364 9753 -10316 0
-11365 9753 0
-11365 -10316 0
11365 -9753 10316 0
-11366 -11364 0
-11366 -11365 0
11366 11364 11365 0
-11361 -9752 0
-11361 10315 0
11361 9752 -10315 0
-11362 9752 0
-11362 -10315 0
11362 -9752 10315 0
-11363 -11361 0
-11363 -11362 0
11363 11361 11362 0
-11358 -9751 0
-11358 10314 0
11358 9751 -10314 0
-11359 9751 0
-11359 -10314 0
11359 -9751 10314 0
-11360 -11358 0
-11360 -11359 0
11360 11358 11359 0
-11355 -9750 0
-11355 10313 0
11355 9750 -10313 0
-11356 9750 0
-11356 -10313 0
11356 -9750 10313 0
-11357 -11355 0
-11357 -11356 0
11357 11355 11356 0
-11352 -9749 0
-11352 10312 0
11352 9749 -10312 0
-11353 9749 0
-11353 -10312 0
11353 -9749 10312 0
-11354 -11352 0
-11354 -11353 0
11354 11352 11353 0
-11349 -9748 0
-11349 10311 0
11349 9748 -10311 0
-11350 9748 0
-11350 -10311 0
11350 -9748 10311 0
-11351 -11349 0
-11351 -11350 0
11351 11349 11350 0
-11346 -9747 0
-11346 10310 0
11346 9747 -10310 0
-11347 9747 0
-11347 -10310 0
11347 -9747 10310 0
-11348 -11346 0
-11348 -11347 0
11348 11346 11347 0
-11343 -9746 0
-11343 10309 0
11343 9746 -10309 0
-11344 9746 0
-11344 -10309 0
11344 -9746 10309 0
-11345 -11343 0
-11345 -11344 0
11345 11343 11344 0
-11340 -9745 0
-11340 10308 0
11340 9745 -10308 0
-11341 9745 0
-11341 -10308 0
11341 -9745 10308 0
-11342 -11340 0
-11342 -11341 0
11342 11340 11341 0
-11337 -9744 0
-11337 10307 0
11337 9744 -10307 0
-11338 9744 0
-11338 -10307 0
11338 -9744 10307 0
-11339 -11337 0
-11339 -11338 0
11339 11337 11338 0
-11334 -9743 0
-11334 10306 0
11334 9743 -10306 0
-11335 9743 0
-11335 -10306 0
11335 -9743 10306 0
-11336 -11334 0
-11336 -11335 0
11336 11334 11335 0
-11331 -9742 0
-11331 10305 0
11331 9742 -10305 0
-11332 9742 0
-11332 -10305 0
11332 -9742 10305 0
-11333 -11331 0
-11333 -11332 0
11333 11331 11332 0
-11328 -9741 0
-11328 10304 0
11328 9741 -10304 0
-11329 9741 0
-11329 -10304 0
11329 -9741 10304 0
-11330 -11328 0
-11330 -11329 0
11330 11328 11329 0
-11325 -9740 0
-11325 10303 0
11325 9740 -10303 0
-11326 9740 0
-11326 -10303 0
11326 -9740 10303 0
-11327 -11325 0
-11327 -11326 0
11327 11325 11326 0
-11322 -9739 0
-11322 10302 0
11322 9739 -10302 0
-11323 9739 0
-11323 -10302 0
11323 -9739 10302 0
-11324 -11322 0
-11324 -11323 0
11324 11322 11323 0
-11319 -9738 0
-11319 10301 0
11319 9738 -10301 0
-11320 9738 0
-11320 -10301 0
11320 -9738 10301 0
-11321 -11319 0
-11321 -11320 0
11321 11319 11320 0
-11316 -9737 0
-11316 10300 0
11316 9737 -10300 0
-11317 9737 0
-11317 -10300 0
11317 -9737 10300 0
-11318 -11316 0
-11318 -11317 0
11318 11316 11317 0
-11313 -9736 0
-11313 10299 0
11313 9736 -10299 0
-11314 9736 0
-11314 -10299 0
11314 -9736 10299 0
-11315 -11313 0
-11315 -11314 0
11315 11313 11314 0
-11310 -9735 0
-11310 10298 0
11310 9735 -10298 0
-11311 9735 0
-11311 -10298 0
11311 -9735 10298 0
-11312 -11310 0
-11312 -11311 0
11312 11310 11311 0
-11307 -9734 0
-11307 10297 0
11307 9734 -10297 0
-11308 9734 0
-11308 -10297 0
11308 -9734 10297 0
-11309 -11307 0
-11309 -11308 0
11309 11307 11308 0
-11304 -9733 0
-11304 10296 0
11304 9733 -10296 0
-11305 9733 0
-11305 -10296 0
11305 -9733 10296 0
-11306 -11304 0
-11306 -11305 0
11306 11304 11305 0
-11301 -9732 0
-11301 10295 0
11301 9732 -10295 0
-11302 9732 0
-11302 -10295 0
11302 -9732 10295 0
-11303 -11301 0
-11303 -11302 0
11303 11301 11302 0
-11298 -9731 0
-11298 10294 0
11298 9731 -10294 0
-11299 9731 0
-11299 -10294 0
11299 -9731 10294 0
-11300 -11298 0
-11300 -11299 0
11300 11298 11299 0
-11295 -9730 0
-11295 10293 0
11295 9730 -10293 0
-11296 9730 0
-11296 -10293 0
11296 -9730 10293 0
-11297 -11295 0
-11297 -11296 0
11297 11295 11296 0
-11292 -9729 0
-11292 10292 0
11292 9729 -10292 0
-11293 9729 0
-11293 -10292 0
11293 -9729 10292 0
-11294 -11292 0
-11294 -11293 0
11294 11292 11293 0
-11289 -9728 0
-11289 10291 0
11289 9728 -10291 0
-11290 9728 0
-11290 -10291 0
11290 -9728 10291 0
-11291 -11289 0
-11291 -11290 0
11291 11289 11290 0
-11286 -9727 0
-11286 10290 0
11286 9727 -10290 0
-11287 9727 0
-11287 -10290 0
11287 -9727 10290 0
-11288 -11286 0
-11288 -11287 0
11288 11286 11287 0
-11283 -9726 0
-11283 10289 0
11283 9726 -10289 0
-11284 9726 0
-11284 -10289 0
11284 -9726 10289 0
-11285 -11283 0
-11285 -11284 0
11285 11283 11284 0
-11280 -9725 0
-11280 10288 0
11280 9725 -10288 0
-11281 9725 0
-11281 -10288 0
11281 -9725 10288 0
-11282 -11280 0
-11282 -11281 0
11282 11280 11281 0
-11277 -9724 0
-11277 10287 0
11277 9724 -10287 0
-11278 9724 0
-11278 -10287 0
11278 -9724 10287 0
-11279 -11277 0
-11279 -11278 0
11279 11277 11278 0
-11274 -9723 0
-11274 10286 0
11274 9723 -10286 0
-11275 9723 0
-11275 -10286 0
11275 -9723 10286 0
-11276 -11274 0
-11276 -11275 0
11276 11274 11275 0
-11271 -9722 0
-11271 10285 0
11271 9722 -10285 0
-11272 9722 0
-11272 -10285 0
11272 -9722 10285 0
-11273 -11271 0
-11273 -11272 0
11273 11271 11272 0
-11268 -9721 0
-11268 10284 0
11268 9721 -10284 0
-11269 9721 0
-11269 -10284 0
11269 -9721 10284 0
-11270 -11268 0
-11270 -11269 0
11270 11268 11269 0
-11265 -9720 0
-11265 10283 0
11265 9720 -10283 0
-11266 9720 0
-11266 -10283 0
11266 -9720 10283 0
-11267 -11265 0
-11267 -11266 0
11267 11265 11266 0
-11262 -9719 0
-11262 10282 0
11262 9719 -10282 0
-11263 9719 0
-11263 -10282 0
11263 -9719 10282 0
-11264 -11262 0
-11264 -11263 0
11264 11262 11263 0
-11259 -9718 0
-11259 10281 0
11259 9718 -10281 0
-11260 9718 0
-11260 -10281 0
11260 -9718 10281 0
-11261 -11259 0
-11261 -11260 0
11261 11259 11260 0
-11256 -9717 0
-11256 10280 0
11256 9717 -10280 0
-11257 9717 0
-11257 -10280 0
11257 -9717 10280 0
-11258 -11256 0
-11258 -11257 0
11258 11256 11257 0
-11253 -9716 0
-11253 10279 0
11253 9716 -10279 0
-11254 9716 0
-11254 -10279 0
11254 -9716 10279 0
-11255 -11253 0
-11255 -11254 0
11255 11253 11254 0
-11250 -9715 0
-11250 10278 0
11250 9715 -10278 0
-11251 9715 0
-11251 -10278 0
11251 -9715 10278 0
-11252 -11250 0
-11252 -11251 0
11252 11250 11251 0
-11247 -9714 0
-11247 10277 0
11247 9714 -10277 0
-11248 9714 0
-11248 -10277 0
11248 -9714 10277 0
-11249 -11247 0
-11249 -11248 0
11249 11247 11248 0
-11244 -9713 0
-11244 10276 0
11244 9713 -10276 0
-11245 9713 0
-11245 -10276 0
11245 -9713 10276 0
-11246 -11244 0
-11246 -11245 0
11246 11244 11245 0
-11241 -9712 0
-11241 10275 0
11241 9712 -10275 0
-11242 9712 0
-11242 -10275 0
11242 -9712 10275 0
-11243 -11241 0
-11243 -11242 0
11243 11241 11242 0
-11238 -9711 0
-11238 10274 0
11238 9711 -10274 0
-11239 9711 0
-11239 -10274 0
11239 -9711 10274 0
-11240 -11238 0
-11240 -11239 0
11240 11238 11239 0
-11235 -9710 0
-11235 10273 0
11235 9710 -10273 0
-11236 9710 0
-11236 -10273 0
11236 -9710 10273 0
-11237 -11235 0
-11237 -11236 0
11237 11235 11236 0
-11232 -9709 0
-11232 10272 0
11232 9709 -10272 0
-11233 9709 0
-11233 -10272 0
11233 -9709 10272 0
-11234 -11232 0
-11234 -11233 0
11234 11232 11233 0
-11229 -9708 0
-11229 10271 0
11229 9708 -10271 0
-11230 9708 0
-11230 -10271 0
11230 -9708 10271 0
-11231 -11229 0
-11231 -11230 0
11231 11229 11230 0
-11226 -9707 0
-11226 10270 0
11226 9707 -10270 0
-11227 9707 0
-11227 -10270 0
11227 -9707 10270 0
-11228 -11226 0
-11228 -11227 0
11228 11226 11227 0
-11223 -9706 0
-11223 10269 0
11223 9706 -10269 0
-11224 9706 0
-11224 -10269 0
11224 -9706 10269 0
-11225 -11223 0
-11225 -11224 0
11225 11223 11224 0
-11220 -9705 0
-11220 10268 0
11220 9705 -10268 0
-11221 9705 0
-11221 -10268 0
11221 -9705 10268 0
-11222 -11220 0
-11222 -11221 0
11222 11220 11221 0
-11217 -9704 0
-11217 10267 0
11217 9704 -10267 0
-11218 9704 0
-11218 -10267 0
11218 -9704 10267 0
-11219 -11217 0
-11219 -11218 0
11219 11217 11218 0
-11214 -9703 0
-11214 10266 0
11214 9703 -10266 0
-11215 9703 0
-11215 -10266 0
11215 -9703 10266 0
-11216 -11214 0
-11216 -11215 0
11216 11214 11215 0
-11208 -9701 0
-11208 10264 0
11208 9701 -10264 0
-11209 9701 0
-11209 -10264 0
11209 -9701 10264 0
-11210 -11208 0
-11210 -11209 0
11210 11208 11209 0
-11211 -9702 0
-11211 10265 0
11211 9702 -10265 0
-11212 9702 0
-11212 -10265 0
11212 -9702 10265 0
-11213 -11211 0
-11213 -11212 0
11213 11211 11212 0
-11397 11210 0
-11397 11213 0
11397 -11210 -11213 0
-11398 11216 0
-11398 11397 0
11398 -11216 -11397 0
-11399 11219 0
-11399 11398 0
11399 -11219 -11398 0
-11400 11222 0
-11400 11399 0
11400 -11222 -11399 0
-11401 11225 0
-11401 11400 0
11401 -11225 -11400 0
-11402 11228 0
-11402 11401 0
11402 -11228 -11401 0
-11403 11231 0
-11403 11402 0
11403 -11231 -11402 0
-11404 11234 0
-11404 11403 0
11404 -11234 -11403 0
-11405 11237 0
-11405 11404 0
11405 -11237 -11404 0
-11406 11240 0
-11406 11405 0
11406 -11240 -11405 0
-11407 11243 0
-11407 11406 0
11407 -11243 -11406 0
-11408 11246 0
-11408 11407 0
11408 -11246 -11407 0
-11409 11249 0
-11409 11408 0
11409 -11249 -11408 0
-11410 11252 0
-11410 11409 0
11410 -11252 -11409 0
-11411 11255 0
-11411 11410 0
11411 -11255 -11410 0
-11412 11258 0
-11412 11411 0
11412 -11258 -11411 0
-11413 11261 0
-11413 11412 0
11413 -11261 -11412 0
-11414 11264 0
-11414 11413 0
11414 -11264 -11413 0
-11415 11267 0
-11415 11414 0
11415 -11267 -11414 0
-11416 11270 0
-11416 11415 0
11416 -11270 -11415 0
-11417 11273 0
-11417 11416 0
11417 -11273 -11416 0
-11418 11276 0
-11418 11417 0
11418 -11276 -11417 0
-11419 11279 0
-11419 11418 0
11419 -11279 -11418 0
-11420 11282 0
-11420 11419 0
11420 -11282 -11419 0
-11421 11285 0
-11421 11420 0
11421 -11285 -11420 0
-11422 11288 0
-11422 11421 0
11422 -11288 -11421 0
-11423 11291 0
-11423 11422 0
11423 -11291 -11422 0
-11424 11294 0
-11424 11423 0
11424 -11294 -11423 0
-11425 11297 0
-11425 11424 0
11425 -11297 -11424 0
-11426 11300 0
-11426 11425 0
11426 -11300 -11425 0
-11427 11303 0
-11427 11426 0
11427 -11303 -11426 0
-11428 11306 0
-11428 11427 0
11428 -11306 -11427 0
-11429 11309 0
-11429 11428 0
11429 -11309 -11428 0
-11430 11312 0
-11430 11429 0
11430 -11312 -11429 0
-11431 11315 0
-11431 11430 0
11431 -11315 -11430 0
-11432 11318 0
-11432 11431 0
11432 -11318 -11431 0
-11433 11321 0
-11433 11432 0
11433 -11321 -11432 0
-11434 11324 0
-11434 11433 0
11434 -11324 -11433 0
-11435 11327 0
-11435 11434 0
11435 -11327 -11434 0
-11436 11330 0
-11436 11435 0
11436 -11330 -11435 0
-11437 11333 0
-11437 11436 0
11437 -11333 -11436 0
-11438 11336 0
-11438 11437 0
11438 -11336 -11437 0
-11439 11339 0
-11439 11438 0
11439 -11339 -11438 0
-11440 11342 0
-11440 11439 0
11440 -11342 -11439 0
-11441 11345 0
-11441 11440 0
11441 -11345 -11440 0
-11442 11348 0
-11442 11441 0
11442 -11348 -11441 0
-11443 11351 0
-11443 11442 0
11443 -11351 -11442 0
-11444 11354 0
-11444 11443 0
11444 -11354 -11443 0
-11445 11357 0
-11445 11444 0
11445 -11357 -11444 0
-11446 11360 0
-11446 11445 0
11446 -11360 -11445 0
-11447 11363 0
-11447 11446 0
11447 -11363 -11446 0
-11448 11366 0
-11448 11447 0
11448 -11366 -11447 0
-11449 11369 0
-11449 11448 0
11449 -11369 -11448 0
-11450 11372 0
-11450 11449 0
11450 -11372 -11449 0
-11451 11375 0
-11451 11450 0
11451 -11375 -11450 0
-11452 11378 0
-11452 11451 0
11452 -11378 -11451 0
-11453 11381 0
-11453 11452 0
11453 -11381 -11452 0
-11454 11384 0
-11454 11453 0
11454 -11384 -11453 0
-11455 11387 0
-11455 11454 0
11455 -11387 -11454 0
-11456 11390 0
-11456 11455 0
11456 -11390 -11455 0
-11457 11393 0
-11457 11456 0
11457 -11393 -11456 0
-11458 11396 0
-11458 11457 0
11458 -11396 -11457 0
-11459 -10327 0
-11459 11458 0
11459 10327 -11458 0
-11460 -9658 0
-11460 -11459 0
11460 9658 11459 0
-11461 11207 0
-11461 -11460 0
11461 -11207 11460 0
11462 -17194 0
-11462 17194 0
-11463 -8955 0
-11463 11462 0
11463 8955 -11462 0
-11464 8955 0
-11464 -11462 0
11464 -8955 11462 0
-11465 -11463 0
-11465 -11464 0
11465 11463 11464 0
-11466 7843 0
-11466 -11465 0
11466 -7843 11465 0
-11467 11461 0
-11467 -11466 0
11467 -11461 11466 0
-11468 -7887 0
-11468 11462 0
11468 7887 -11462 0
-11469 7887 0
-11469 -11462 0
11469 -7887 11462 0
-11470 -11468 0
-11470 -11469 0
11470 11468 11469 0
-11471 -7843 0
-11471 -11470 0
11471 7843 11470 0
-11472 11467 0
-11472 -11471 0
11472 -11467 11471 0
11473 -17195 0
-11473 17195 0
-11474 -10767 0
-11474 11473 0
11474 10767 -11473 0
-11475 10767 0
-11475 -11473 0
11475 -10767 11473 0
-11476 -11474 0
-11476 -11475 0
11476 11474 11475 0
-11477 9658 0
-11477 -11476 0
11477 -9658 11476 0
-11478 11472 0
-11478 -11477 0
11478 -11472 11477 0
-11479 -11462 0
-11479 11473 0
11479 11462 -11473 0
-11480 11462 0
-11480 -11473 0
11480 -11462 11473 0
-11481 -11479 0
-11481 -11480 0
11481 11479 11480 0
-11482 -9658 0
-11482 -11481 0
11482 9658 11481 0
-11483 11478 0
-11483 -11482 0
11483 -11478 11482 0
11493 -17205 0
-11493 17205 0
11492 -17204 0
-11492 17204 0
11491 -17203 0
-11491 17203 0
11490 -17202 0
-11490 17202 0
11489 -17201 0
-11489 17201 0
11488 -17200 0
-11488 17200 0
11487 -17199 0
-11487 17199 0
11486 -17198 0
-11486 17198 0
11484 -17196 0
-11484 17196 0
11485 -17197 0
-11485 17197 0
-11494 11484 0
-11494 -11485 0
11494 -11484 11485 0
-11495 -11486 0
-11495 11494 0
11495 11486 -11494 0
-11496 -11487 0
-11496 11495 0
11496 11487 -11495 0
-11497 -11488 0
-11497 11496 0
11497 11488 -11496 0
-11498 -11489 0
-11498 11497 0
11498 11489 -11497 0
-11499 -11490 0
-11499 11498 0
11499 11490 -11498 0
-11500 -11491 0
-11500 11499 0
11500 11491 -11499 0
-11501 -11492 0
-11501 11500 0
11501 11492 -11500 0
-11502 -11493 0
-11502 11501 0
11502 11493 -11501 0
-11503 11473 0
-11503 -11502 0
11503 -11473 11502 0
-11504 11483 0
-11504 -11503 0
11504 -11483 11503 0
-11505 -11484 0
-11505 -11485 0
11505 11484 11485 0
-11506 -11486 0
-11506 11505 0
11506 11486 -11505 0
-11507 -11487 0
-11507 11506 0
11507 11487 -11506 0
-11508 -11488 0
-11508 11507 0
11508 11488 -11507 0
-11509 -11489 0
-11509 11508 0
11509 11489 -11508 0
-11510 -11490 0
-11510 11509 0
11510 11490 -11509 0
-11511 -11491 0
-11511 11510 0
11511 11491 -11510 0
-11512 -11492 0
-11512 11511 0
11512 11492 -11511 0
-11513 -11493 0
-11513 11512 0
11513 11493 -11512 0
-11514 -11473 0
-11514 -11513 0
11514 11473 11513 0
-11515 11504 0
-11515 -11514 0
11515 -11504 11514 0
11578 -17268 0
-11578 17268 0
11577 -17267 0
-11577 17267 0
-11762 -10953 0
-11762 11577 0
11762 10953 -11577 0
-11763 10953 0
-11763 -11577 0
11763 -10953 11577 0
-11764 -11762 0
-11764 -11763 0
11764 11762 11763 0
11576 -17266 0
-11576 17266 0
-11759 -10950 0
-11759 11576 0
11759 10950 -11576 0
-11760 10950 0
-11760 -11576 0
11760 -10950 11576 0
-11761 -11759 0
-11761 -11760 0
11761 11759 11760 0
11575 -17265 0
-11575 17265 0
-11756 -10947 0
-11756 11575 0
11756 10947 -11575 0
-11757 10947 0
-11757 -11575 0
11757 -10947 11575 0
-11758 -11756 0
-11758 -11757 0
11758 11756 11757 0
11574 -17264 0
-11574 17264 0
-11753 -10944 0
-11753 11574 0
11753 10944 -11574 0
-11754 10944 0
-11754 -11574 0
11754 -10944 11574 0
-11755 -11753 0
-11755 -11754 0
11755 11753 11754 0
11573 -17263 0
-11573 17263 0
-11750 -10941 0
-11750 11573 0
11750 10941 -11573 0
-11751 10941 0
-11751 -11573 0
11751 -10941 11573 0
-11752 -11750 0
-11752 -11751 0
11752 11750 11751 0
11572 -17262 0
-11572 17262 0
-11747 -10938 0
-11747 11572 0
11747 10938 -11572 0
-11748 10938 0
-11748 -11572 0
11748 -10938 11572 0
-11749 -11747 0
-11749 -11748 0
11749 11747 11748 0
11571 -17261 0
-11571 17261 0
-11744 -10935 0
-11744 11571 0
11744 10935 -11571 0
-11745 10935 0
-11745 -11571 0
11745 -10935 11571 0
-11746 -11744 0
-11746 -11745 0
11746 11744 11745 0
11570 -17260 0
-11570 17260 0
-11741 -10932 0
-11741 11570 0
11741 10932 -11570 0
-11742 10932 0
-11742 -11570 0
11742 -10932 11570 0
-11743 -11741 0
-11743 -11742 0
11743 11741 11742 0
11569 -17259 0
-11569 17259 0
-11738 -10929 0
-11738 11569 0
11738 10929 -11569 0
-11739 10929 0
-11739 -11569 0
11739 -10929 11569 0
-11740 -11738 0
-11740 -11739 0
11740 11738 11739 0
11568 -17258 0
-11568 17258 0
-11735 -10926 0
-11735 11568 0
11735 10926 -11568 0
-11736 10926 0
-11736 -11568 0
11736 -10926 11568 0
-11737 -11735 0
-11737 -11736 0
11737 11735 11736 0
11567 -17257 0
-11567 17257 0
-11732 -10923 0
-11732 11567 0
11732 10923 -11567 0
-11733 10923 0
-11733 -11567 0
11733 -10923 11567 0
-11734 -11732 0
-11734 -11733 0
11734 11732 11733 0
11566 -17256 0
-11566 17256 0
-11729 -10920 0
-11729 11566 0
11729 10920 -11566 0
-11730 10920 0
-11730 -11566 0
11730 -10920 11566 0
-11731 -11729 0
-11731 -11730 0
11731 11729 11730 0
11565 -17255 0
-11565 17255 0
-11726 -10917 0
-11726 11565 0
11726 10917 -11565 0
-11727 10917 0
-11727 -11565 0
11727 -10917 11565 0
-11728 -11726 0
-11728 -11727 0
11728 11726 11727 0
11564 -17254 0
-11564 17254 0
-11723 -10914 0
-11723 11564 0
11723 10914 -11564 0
-11724 10914 0
-11724 -11564 0
11724 -10914 11564 0
-11725 -11723 0
-11725 -11724 0
11725 11723 11724 0
11563 -17253 0
-11563 17253 0
-11720 -10911 0
-11720 11563 0
11720 10911 -11563 0
-11721 10911 0
-11721 -11563 0
11721 -10911 11563 0
-11722 -11720 0
-11722 -11721 0
11722 11720 11721 0
11562 -17252 0
-11562 17252 0
-11717 -10908 0
-11717 11562 0
11717 10908 -11562 0
-11718 10908 0
-11718 -11562 0
11718 -10908 11562 0
-11719 -11717 0
-11719 -11718 0
11719 11717 11718 0
11561 -17251 0
-11561 17251 0
-11714 -10905 0
-11714 11561 0
11714 10905 -11561 0
-11715 10905 0
-11715 -11561 0
11715 -10905 11561 0
-11716 -11714 0
-11716 -11715 0
11716 11714 11715 0
11560 -17250 0
-11560 17250 0
-11711 -10902 0
-11711 11560 0
11711 10902 -11560 0
-11712 10902 0
-11712 -11560 0
11712 -10902 11560 0
-11713 -11711 0
-11713 -11712 0
11713 11711 11712 0
11559 -17249 0
-11559 17249 0
-11708 -10899 0
-11708 11559 0
11708 10899 -11559 0
-11709 10899 0
-11709 -11559 0
11709 -10899 11559 0
-11710 -11708 0
-11710 -11709 0
11710 11708 11709 0
11558 -17248 0
-11558 17248 0
-11705 -10896 0
-11705 11558 0
11705 10896 -11558 0
-11706 10896 0
-11706 -11558 0
11706 -10896 11558 0
-11707 -11705 0
-11707 -11706 0
11707 11705 11706 0
11557 -17247 0
-11557 17247 0
-11702 -10893 0
-11702 11557 0
11702 10893 -11557 0
-11703 10893 0
-11703 -11557 0
11703 -10893 11557 0
-11704 -11702 0
-11704 -11703 0
11704 11702 11703 0
11556 -17246 0
-11556 17246 0
-11699 -10890 0
-11699 11556 0
11699 10890 -11556 0
-11700 10890 0
-11700 -11556 0
11700 -10890 11556 0
-11701 -11699 0
-11701 -11700 0
11701 11699 11700 0
11555 -17245 0
-11555 17245 0
-11696 -10887 0
-11696 11555 0
11696 10887 -11555 0
-11697 10887 0
-11697 -11555 0
11697 -10887 11555 0
-11698 -11696 0
-11698 -11697 0
11698 11696 11697 0
11554 -17244 0
-11554 17244 0
-11693 -10884 0
-11693 11554 0
11693 10884 -11554 0
-11694 10884 0
-11694 -11554 0
11694 -10884 11554 0
-11695 -11693 0
-11695 -11694 0
11695 11693 11694 0
11553 -17243 0
-11553 17243 0
-11690 -10881 0
-11690 11553 0
11690 10881 -11553 0
-11691 10881 0
-11691 -11553 0
11691 -10881 11553 0
-11692 -11690 0
-11692 -11691 0
11692 11690 11691 0
11552 -17242 0
-11552 17242 0
-11687 -10878 0
-11687 11552 0
11687 10878 -11552 0
-11688 10878 0
-11688 -11552 0
11688 -10878 11552 0
-11689 -11687 0
-11689 -11688 0
11689 11687 11688 0
11551 -17241 0
-11551 17241 0
-11684 -10875 0
-11684 11551 0
11684 10875 -11551 0
-11685 10875 0
-11685 -11551 0
11685 -10875 11551 0
-11686 -11684 0
-11686 -11685 0
11686 11684 11685 0
11550 -17240 0
-11550 17240 0
-11681 -10872 0
-11681 11550 0
11681 10872 -11550 0
-11682 10872 0
-11682 -11550 0
11682 -10872 11550 0
-11683 -11681 0
-11683 -11682 0
11683 11681 11682 0
11549 -17239 0
-11549 17239 0
-11678 -10869 0
-11678 11549 0
11678 10869 -11549 0
-11679 10869 0
-11679 -11549 0
11679 -10869 11549 0
-11680 -11678 0
-11680 -11679 0
11680 11678 11679 0
11548 -17238 0
-11548 17238 0
-11675 -10866 0
-11675 11548 0
11675 10866 -11548 0
-11676 10866 0
-11676 -11548 0
11676 -10866 11548 0
-11677 -11675 0
-11677 -11676 0
11677 11675 11676 0
11547 -17237 0
-11547 17237 0
-11672 -10863 0
-11672 11547 0
11672 10863 -11547 0
-11673 10863 0
-11673 -11547 0
11673 -10863 11547 0
-11674 -11672 0
-11674 -11673 0
11674 11672 11673 0
11546 -17236 0
-11546 17236 0
-11669 -10860 0
-11669 11546 0
11669 10860 -11546 0
-11670 10860 0
-11670 -11546 0
11670 -10860 11546 0
-11671 -11669 0
-11671 -11670 0
11671 11669 11670 0
11545 -17235 0
-11545 17235 0
-11666 -10857 0
-11666 11545 0
11666 10857 -11545 0
-11667 10857 0
-11667 -11545 0
11667 -10857 11545 0
-11668 -11666 0
-11668 -11667 0
11668 11666 11667 0
11544 -17234 0
-11544 17234 0
-11663 -10854 0
-11663 11544 0
11663 10854 -11544 0
-11664 10854 0
-11664 -11544 0
11664 -10854 11544 0
-11665 -11663 0
-11665 -11664 0
11665 11663 11664 0
11543 -17233 0
-11543 17233 0
-11660 -10851 0
-11660 11543 0
11660 10851 -11543 0
-11661 10851 0
-11661 -11543 0
11661 -10851 11543 0
-11662 -11660 0
-11662 -11661 0
11662 11660 11661 0
11542 -17232 0
-11542 17232 0
-11657 -10848 0
-11657 11542 0
11657 10848 -11542 0
-11658 10848 0
-11658 -11542 0
11658 -10848 11542 0
-11659 -11657 0
-11659 -11658 0
11659 11657 11658 0
11541 -17231 0
-11541 17231 0
-11654 -10845 0
-11654 11541 0
11654 10845 -11541 0
-11655 10845 0
-11655 -11541 0
11655 -10845 11541 0
-11656 -11654 0
-11656 -11655 0
11656 11654 11655 0
11540 -17230 0
-11540 17230 0
-11651 -10842 0
-11651 11540 0
11651 10842 -11540 0
-11652 10842 0
-11652 -11540 0
11652 -10842 11540 0
-11653 -11651 0
-11653 -11652 0
11653 11651 11652 0
11539 -17229 0
-11539 17229 0
-11648 -10839 0
-11648 11539 0
11648 10839 -11539 0
-11649 10839 0
-11649 -11539 0
11649 -10839 11539 0
-11650 -11648 0
-11650 -11649 0
11650 11648 11649 0
11538 -17228 0
-11538 17228 0
-11645 -10836 0
-11645 11538 0
11645 10836 -11538 0
-11646 10836 0
-11646 -11538 0
11646 -10836 11538 0
-11647 -11645 0
-11647 -11646 0
11647 11645 11646 0
11537 -17227 0
-11537 17227 0
-11642 -10833 0
-11642 11537 0
11642 10833 -11537 0
-11643 10833 0
-11643 -11537 0
11643 -10833 11537 0
-11644 -11642 0
-11644 -11643 0
11644 11642 11643 0
11536 -17226 0
-11536 17226 0
-11639 -10830 0
-11639 11536 0
11639 10830 -11536 0
-11640 10830 0
-11640 -11536 0
11640 -10830 11536 0
-11641 -11639 0
-11641 -11640 0
11641 11639 11640 0
11535 -17225 0
-11535 17225 0
-11636 -10827 0
-11636 11535 0
11636 10827 -11535 0
-11637 10827 0
-11637 -11535 0
11637 -10827 11535 0
-11638 -11636 0
-11638 -11637 0
11638 11636 11637 0
11534 -17224 0
-11534 17224 0
-11633 -10824 0
-11633 11534 0
11633 10824 -11534 0
-11634 10824 0
-11634 -11534 0
11634 -10824 11534 0
-11635 -11633 0
-11635 -11634 0
11635 11633 11634 0
11533 -17223 0
-11533 17223 0
-11630 -10821 0
-11630 11533 0
11630 10821 -11533 0
-11631 10821 0
-11631 -11533 0
11631 -10821 11533 0
-11632 -11630 0
-11632 -11631 0
11632 11630 11631 0
11532 -17222 0
-11532 17222 0
-11627 -10818 0
-11627 11532 0
11627 10818 -11532 0
-11628 10818 0
-11628 -11532 0
11628 -10818 11532 0
-11629 -11627 0
-11629 -11628 0
11629 11627 11628 0
11531 -17221 0
-11531 17221 0
-11624 -10815 0
-11624 11531 0
11624 10815 -11531 0
-11625 10815 0
-11625 -11531 0
11625 -10815 11531 0
-11626 -11624 0
-11626 -11625 0
11626 11624 11625 0
11530 -17220 0
-11530 17220 0
-11621 -10812 0
-11621 11530 0
11621 10812 -11530 0
-11622 10812 0
-11622 -11530 0
11622 -10812 11530 0
-11623 -11621 0
-11623 -11622 0
11623 11621 11622 0
11529 -17219 0
-11529 17219 0
-11618 -10809 0
-11618 11529 0
11618 10809 -11529 0
-11619 10809 0
-11619 -11529 0
11619 -10809 11529 0
-11620 -11618 0
-11620 -11619 0
11620 11618 11619 0
11528 -17218 0
-11528 17218 0
-11615 -10806 0
-11615 11528 0
11615 10806 -11528 0
-11616 10806 0
-11616 -11528 0
11616 -10806 11528 0
-11617 -11615 0
-11617 -11616 0
11617 11615 11616 0
11527 -17217 0
-11527 17217 0
-11612 -10803 0
-11612 11527 0
11612 10803 -11527 0
-11613 10803 0
-11613 -11527 0
11613 -10803 11527 0
-11614 -11612 0
-11614 -11613 0
11614 11612 11613 0
11526 -17216 0
-11526 17216 0
-11609 -10800 0
-11609 11526 0
11609 10800 -11526 0
-11610 10800 0
-11610 -11526 0
11610 -10800 11526 0
-11611 -11609 0
-11611 -11610 0
11611 11609 11610 0
11525 -17215 0
-11525 17215 0
-11606 -10797 0
-11606 11525 0
11606 10797 -11525 0
-11607 10797 0
-11607 -11525 0
11607 -10797 11525 0
-11608 -11606 0
-11608 -11607 0
11608 11606 11607 0
11524 -17214 0
-11524 17214 0
-11603 -10794 0
-11603 11524 0
11603 10794 -11524 0
-11604 10794 0
-11604 -11524 0
11604 -10794 11524 0
-11605 -11603 0
-11605 -11604 0
11605 11603 11604 0
11523 -17213 0
-11523 17213 0
-11600 -10791 0
-11600 11523 0
11600 10791 -11523 0
-11601 10791 0
-11601 -11523 0
11601 -10791 11523 0
-11602 -11600 0
-11602 -11601 0
11602 11600 11601 0
11522 -17212 0
-11522 17212 0
-11597 -10788 0
-11597 11522 0
11597 10788 -11522 0
-11598 10788 0
-11598 -11522 0
11598 -10788 11522 0
-11599 -11597 0
-11599 -11598 0
11599 11597 11598 0
11521 -17211 0
-11521 17211 0
-11594 -10785 0
-11594 11521 0
11594 10785 -11521 0
-11595 10785 0
-11595 -11521 0
11595 -10785 11521 0
-11596 -11594 0
-11596 -11595 0
11596 11594 11595 0
11520 -17210 0
-11520 17210 0
-11591 -10782 0
-11591 11520 0
11591 10782 -11520 0
-11592 10782 0
-11592 -11520 0
11592 -10782 11520 0
-11593 -11591 0
-11593 -11592 0
11593 11591 11592 0
11519 -17209 0
-11519 17209 0
-11588 -10779 0
-11588 11519 0
11588 10779 -11519 0
-11589 10779 0
-11589 -11519 0
11589 -10779 11519 0
-11590 -11588 0
-11590 -11589 0
11590 11588 11589 0
11518 -17208 0
-11518 17208 0
-11585 -10776 0
-11585 11518 0
11585 10776 -11518 0
-11586 10776 0
-11586 -11518 0
11586 -10776 11518 0
-11587 -11585 0
-11587 -11586 0
11587 11585 11586 0
11516 -17206 0
-11516 17206 0
-11579 -10770 0
-11579 11516 0
11579 10770 -11516 0
-11580 10770 0
-11580 -11516 0
11580 -10770 11516 0
-11581 -11579 0
-11581 -11580 0
11581 11579 11580 0
11517 -17207 0
-11517 17207 0
-11582 -10773 0
-11582 11517 0
11582 10773 -11517 0
-11583 10773 0
-11583 -11517 0
11583 -10773 11517 0
-11584 -11582 0
-11584 -11583 0
11584 11582 11583 0
-11765 11581 0
-11765 11584 0
11765 -11581 -11584 0
-11766 11587 0
-11766 11765 0
11766 -11587 -11765 0
-11767 11590 0
-11767 11766 0
11767 -11590 -11766 0
-11768 11593 0
-11768 11767 0
11768 -11593 -11767 0
-11769 11596 0
-11769 11768 0
11769 -11596 -11768 0
-11770 11599 0
-11770 11769 0
11770 -11599 -11769 0
-11771 11602 0
-11771 11770 0
11771 -11602 -11770 0
-11772 11605 0
-11772 11771 0
11772 -11605 -11771 0
-11773 11608 0
-11773 11772 0
11773 -11608 -11772 0
-11774 11611 0
-11774 11773 0
11774 -11611 -11773 0
-11775 11614 0
-11775 11774 0
11775 -11614 -11774 0
-11776 11617 0
-11776 11775 0
11776 -11617 -11775 0
-11777 11620 0
-11777 11776 0
11777 -11620 -11776 0
-11778 11623 0
-11778 11777 0
11778 -11623 -11777 0
-11779 11626 0
-11779 11778 0
11779 -11626 -11778 0
-11780 11629 0
-11780 11779 0
11780 -11629 -11779 0
-11781 11632 0
-11781 11780 0
11781 -11632 -11780 0
-11782 11635 0
-11782 11781 0
11782 -11635 -11781 0
-11783 11638 0
-11783 11782 0
11783 -11638 -11782 0
-11784 11641 0
-11784 11783 0
11784 -11641 -11783 0
-11785 11644 0
-11785 11784 0
11785 -11644 -11784 0
-11786 11647 0
-11786 11785 0
11786 -11647 -11785 0
-11787 11650 0
-11787 11786 0
11787 -11650 -11786 0
-11788 11653 0
-11788 11787 0
11788 -11653 -11787 0
-11789 11656 0
-11789 11788 0
11789 -11656 -11788 0
-11790 11659 0
-11790 11789 0
11790 -11659 -11789 0
-11791 11662 0
-11791 11790 0
11791 -11662 -11790 0
-11792 11665 0
-11792 11791 0
11792 -11665 -11791 0
-11793 11668 0
-11793 11792 0
11793 -11668 -11792 0
-11794 11671 0
-11794 11793 0
11794 -11671 -11793 0
-11795 11674 0
-11795 11794 0
11795 -11674 -11794 0
-11796 11677 0
-11796 11795 0
11796 -11677 -11795 0
-11797 11680 0
-11797 11796 0
11797 -11680 -11796 0
-11798 11683 0
-11798 11797 0
11798 -11683 -11797 0
-11799 11686 0
-11799 11798 0
11799 -11686 -11798 0
-11800 11689 0
-11800 11799 0
11800 -11689 -11799 0
-11801 11692 0
-11801 11800 0
11801 -11692 -11800 0
-11802 11695 0
-11802 11801 0
11802 -11695 -11801 0
-11803 11698 0
-11803 11802 0
11803 -11698 -11802 0
-11804 11701 0
-11804 11803 0
11804 -11701 -11803 0
-11805 11704 0
-11805 11804 0
11805 -11704 -11804 0
-11806 11707 0
-11806 11805 0
11806 -11707 -11805 0
-11807 11710 0
-11807 11806 0
11807 -11710 -11806 0
-11808 11713 0
-11808 11807 0
11808 -11713 -11807 0
-11809 11716 0
-11809 11808 0
11809 -11716 -11808 0
-11810 11719 0
-11810 11809 0
11810 -11719 -11809 0
-11811 11722 0
-11811 11810 0
11811 -11722 -11810 0
-11812 11725 0
-11812 11811 0
11812 -11725 -11811 0
-11813 11728 0
-11813 11812 0
11813 -11728 -11812 0
-11814 11731 0
-11814 11813 0
11814 -11731 -11813 0
-11815 11734 0
-11815 11814 0
11815 -11734 -11814 0
-11816 11737 0
-11816 11815 0
11816 -11737 -11815 0
-11817 11740 0
-11817 11816 0
11817 -11740 -11816 0
-11818 11743 0
-11818 11817 0
11818 -11743 -11817 0
-11819 11746 0
-11819 11818 0
11819 -11746 -11818 0
-11820 11749 0
-11820 11819 0
11820 -11749 -11819 0
-11821 11752 0
-11821 11820 0
11821 -11752 -11820 0
-11822 11755 0
-11822 11821 0
11822 -11755 -11821 0
-11823 11758 0
-11823 11822 0
11823 -11758 -11822 0
-11824 11761 0
-11824 11823 0
11824 -11761 -11823 0
-11825 11764 0
-11825 11824 0
11825 -11764 -11824 0
-11826 -11578 0
-11826 11825 0
11826 11578 -11825 0
-11827 9658 0
-11827 -11826 0
11827 -9658 11826 0
-11828 11515 0
-11828 -11827 0
11828 -11515 11827 0
-12012 -9763 0
-12012 11577 0
12012 9763 -11577 0
-12013 9763 0
-12013 -11577 0
12013 -9763 11577 0
-12014 -12012 0
-12014 -12013 0
12014 12012 12013 0
-12009 -9762 0
-12009 11576 0
12009 9762 -11576 0
-12010 9762 0
-12010 -11576 0
12010 -9762 11576 0
-12011 -12009 0
-12011 -12010 0
12011 12009 12010 0
-12006 -9761 0
-12006 11575 0
12006 9761 -11575 0
-12007 9761 0
-12007 -11575 0
12007 -9761 11575 0
-12008 -12006 0
-12008 -12007 0
12008 12006 12007 0
-12003 -9760 0
-12003 11574 0
12003 9760 -11574 0
-12004 9760 0
-12004 -11574 0
12004 -9760 11574 0
-12005 -12003 0
-12005 -12004 0
12005 12003 12004 0
-12000 -9759 0
-12000 11573 0
12000 9759 -11573 0
-12001 9759 0
-12001 -11573 0
12001 -9759 11573 0
-12002 -12000 0
-12002 -12001 0
12002 12000 12001 0
-11997 -9758 0
-11997 11572 0
11997 9758 -11572 0
-11998 9758 0
-11998 -11572 0
11998 -9758 11572 0
-11999 -11997 0
-11999 -11998 0
11999 11997 11998 0
-11994 -9757 0
-11994 11571 0
11994 9757 -11571 0
-11995 9757 0
-11995 -11571 0
11995 -9757 11571 0
-11996 -11994 0
-11996 -11995 0
11996 11994 11995 0
-11991 -9756 0
-11991 11570 0
11991 9756 -11570 0
-11992 9756 0
-11992 -11570 0
11992 -9756 11570 0
-11993 -11991 0
-11993 -11992 0
11993 11991 11992 0
-11988 -9755 0
-11988 11569 0
11988 9755 -11569 0
-11989 9755 0
-11989 -11569 0
11989 -9755 11569 0
-11990 -11988 0
-11990 -11989 0
11990 11988 11989 0
-11985 -9754 0
-11985 11568 0
11985 9754 -11568 0
-11986 9754 0
-11986 -11568 0
11986 -9754 11568 0
-11987 -11985 0
-11987 -11986 0
11987 11985 11986 0
-11982 -9753 0
-11982 11567 0
11982 9753 -11567 0
-11983 9753 0
-11983 -11567 0
11983 -9753 11567 0
-11984 -11982 0
-11984 -11983 0
11984 11982 11983 0
-11979 -9752 0
-11979 11566 0
11979 9752 -11566 0
-11980 9752 0
-11980 -11566 0
11980 -9752 11566 0
-11981 -11979 0
-11981 -11980 0
11981 11979 11980 0
-11976 -9751 0
-11976 11565 0
11976 9751 -11565 0
-11977 9751 0
-11977 -11565 0
11977 -9751 11565 0
-11978 -11976 0
-11978 -11977 0
11978 11976 11977 0
-11973 -9750 0
-11973 11564 0
11973 9750 -11564 0
-11974 9750 0
-11974 -11564 0
11974 -9750 11564 0
-11975 -11973 0
-11975 -11974 0
11975 11973 11974 0
-11970 -9749 0
-11970 11563 0
11970 9749 -11563 0
-11971 9749 0
-11971 -11563 0
11971 -9749 11563 0
-11972 -11970 0
-11972 -11971 0
11972 11970 11971 0
-11967 -9748 0
-11967 11562 0
11967 9748 -11562 0
-11968 9748 0
-11968 -11562 0
11968 -9748 11562 0
-11969 -11967 0
-11969 -11968 0
11969 11967 11968 0
-11964 -9747 0
-11964 11561 0
11964 9747 -11561 0
-11965 9747 0
-11965 -11561 0
11965 -9747 11561 0
-11966 -11964 0
-11966 -11965 0
11966 11964 11965 0
-11961 -9746 0
-11961 11560 0
11961 9746 -11560 0
-11962 9746 0
-11962 -11560 0
11962 -9746 11560 0
-11963 -11961 0
-11963 -11962 0
11963 11961 11962 0
-11958 -9745 0
-11958 11559 0
11958 9745 -11559 0
-11959 9745 0
-11959 -11559 0
11959 -9745 11559 0
-11960 -11958 0
-11960 -11959 0
11960 11958 11959 0
-11955 -9744 0
-11955 11558 0
11955 9744 -11558 0
-11956 9744 0
-11956 -11558 0
11956 -9744 11558 0
-11957 -11955 0
-11957 -11956 0
11957 11955 11956 0
-11952 -9743 0
-11952 11557 0
11952 9743 -11557 0
-11953 9743 0
-11953 -11557 0
11953 -9743 11557 0
-11954 -11952 0
-11954 -11953 0
11954 11952 11953 0
-11949 -9742 0
-11949 11556 0
11949 9742 -11556 0
-11950 9742 0
-11950 -11556 0
11950 -9742 11556 0
-11951 -11949 0
-11951 -11950 0
11951 11949 11950 0
-11946 -9741 0
-11946 11555 0
11946 9741 -11555 0
-11947 9741 0
-11947 -11555 0
11947 -9741 11555 0
-11948 -11946 0
-11948 -11947 0
11948 11946 11947 0
-11943 -9740 0
-11943 11554 0
11943 9740 -11554 0
-11944 9740 0
-11944 -11554 0
11944 -9740 11554 0
-11945 -11943 0
-11945 -11944 0
11945 11943 11944 0
-11940 -9739 0
-11940 11553 0
11940 9739 -11553 0
-11941 9739 0
-11941 -11553 0
11941 -9739 11553 0
-11942 -11940 0
-11942 -11941 0
11942 11940 11941 0
-11937 -9738 0
-11937 11552 0
11937 9738 -11552 0
-11938 9738 0
-11938 -11552 0
11938 -9738 11552 0
-11939 -11937 0
-11939 -11938 0
11939 11937 11938 0
-11934 -9737 0
-11934 11551 0
11934 9737 -11551 0
-11935 9737 0
-11935 -11551 0
11935 -9737 11551 0
-11936 -11934 0
-11936 -11935 0
11936 11934 11935 0
-11931 -9736 0
-11931 11550 0
11931 9736 -11550 0
-11932 9736 0
-11932 -11550 0
11932 -9736 11550 0
-11933 -11931 0
-11933 -11932 0
11933 11931 11932 0
-11928 -9735 0
-11928 11549 0
11928 9735 -11549 0
-11929 9735 0
-11929 -11549 0
11929 -9735 11549 0
-11930 -11928 0
-11930 -11929 0
11930 11928 11929 0
-11925 -9734 0
-11925 11548 0
11925 9734 -11548 0
-11926 9734 0
-11926 -11548 0
11926 -9734 11548 0
-11927 -11925 0
-11927 -11926 0
11927 11925 11926 0
-11922 -9733 0
-11922 11547 0
11922 9733 -11547 0
-11923 9733 0
-11923 -11547 0
11923 -9733 11547 0
-11924 -11922 0
-11924 -11923 0
11924 11922 11923 0
-11919 -9732 0
-11919 11546 0
11919 9732 -11546 0
-11920 9732 0
-11920 -11546 0
11920 -9732 11546 0
-11921 -11919 0
-11921 -11920 0
11921 11919 11920 0
-11916 -9731 0
-11916 11545 0
11916 9731 -11545 0
-11917 9731 0
-11917 -11545 0
11917 -9731 11545 0
-11918 -11916 0
-11918 -11917 0
11918 11916 11917 0
-11913 -9730 0
-11913 11544 0
11913 9730 -11544 0
-11914 9730 0
-11914 -11544 0
11914 -9730 11544 0
-11915 -11913 0
-11915 -11914 0
11915 11913 11914 0
-11910 -9729 0
-11910 11543 0
11910 9729 -11543 0
-11911 9729 0
-11911 -11543 0
11911 -9729 11543 0
-11912 -11910 0
-11912 -11911 0
11912 11910 11911 0
-11907 -9728 0
-11907 11542 0
11907 9728 -11542 0
-11908 9728 0
-11908 -11542 0
11908 -9728 11542 0
-11909 -11907 0
-11909 -11908 0
11909 11907 11908 0
-11904 -9727 0
-11904 11541 0
11904 9727 -11541 0
-11905 9727 0
-11905 -11541 0
11905 -9727 11541 0
-11906 -11904 0
-11906 -11905 0
11906 11904 11905 0
-11901 -9726 0
-11901 11540 0
11901 9726 -11540 0
-11902 9726 0
-11902 -11540 0
11902 -9726 11540 0
-11903 -11901 0
-11903 -11902 0
11903 11901 11902 0
-11898 -9725 0
-11898 11539 0
11898 9725 -11539 0
-11899 9725 0
-11899 -11539 0
11899 -9725 11539 0
-11900 -11898 0
-11900 -11899 0
11900 11898 11899 0
-11895 -9724 0
-11895 11538 0
11895 9724 -11538 0
-11896 9724 0
-11896 -11538 0
11896 -9724 11538 0
-11897 -11895 0
-11897 -11896 0
11897 11895 11896 0
-11892 -9723 0
-11892 11537 0
11892 9723 -11537 0
-11893 9723 0
-11893 -11537 0
11893 -9723 11537 0
-11894 -11892 0
-11894 -11893 0
11894 11892 11893 0
-11889 -9722 0
-11889 11536 0
11889 9722 -11536 0
-11890 9722 0
-11890 -11536 0
11890 -9722 11536 0
-11891 -11889 0
-11891 -11890 0
11891 11889 11890 0
-11886 -9721 0
-11886 11535 0
11886 9721 -11535 0
-11887 9721 0
-11887 -11535 0
11887 -9721 11535 0
-11888 -11886 0
-11888 -11887 0
11888 11886 11887 0
-11883 -9720 0
-11883 11534 0
11883 9720 -11534 0
-11884 9720 0
-11884 -11534 0
11884 -9720 11534 0
-11885 -11883 0
-11885 -11884 0
11885 11883 11884 0
-11880 -9719 0
-11880 11533 0
11880 9719 -11533 0
-11881 9719 0
-11881 -11533 0
11881 -9719 11533 0
-11882 -11880 0
-11882 -11881 0
11882 11880 11881 0
-11877 -9718 0
-11877 11532 0
11877 9718 -11532 0
-11878 9718 0
-11878 -11532 0
11878 -9718 11532 0
-11879 -11877 0
-11879 -11878 0
11879 11877 11878 0
-11874 -9717 0
-11874 11531 0
11874 9717 -11531 0
-11875 9717 0
-11875 -11531 0
11875 -9717 11531 0
-11876 -11874 0
-11876 -11875 0
11876 11874 11875 0
-11871 -9716 0
-11871 11530 0
11871 9716 -11530 0
-11872 9716 0
-11872 -11530 0
11872 -9716 11530 0
-11873 -11871 0
-11873 -11872 0
11873 11871 11872 0
-11868 -9715 0
-11868 11529 0
11868 9715 -11529 0
-11869 9715 0
-11869 -11529 0
11869 -9715 11529 0
-11870 -11868 0
-11870 -11869 0
11870 11868 11869 0
-11865 -9714 0
-11865 11528 0
11865 9714 -11528 0
-11866 9714 0
-11866 -11528 0
11866 -9714 11528 0
-11867 -11865 0
-11867 -11866 0
11867 11865 11866 0
-11862 -9713 0
-11862 11527 0
11862 9713 -11527 0
-11863 9713 0
-11863 -11527 0
11863 -9713 11527 0
-11864 -11862 0
-11864 -11863 0
11864 11862 11863 0
-11859 -9712 0
-11859 11526 0
11859 9712 -11526 0
-11860 9712 0
-11860 -11526 0
11860 -9712 11526 0
-11861 -11859 0
-11861 -11860 0
11861 11859 11860 0
-11856 -9711 0
-11856 11525 0
11856 9711 -11525 0
-11857 9711 0
-11857 -11525 0
11857 -9711 11525 0
-11858 -11856 0
-11858 -11857 0
11858 11856 11857 0
-11853 -9710 0
-11853 11524 0
11853 9710 -11524 0
-11854 9710 0
-11854 -11524 0
11854 -9710 11524 0
-11855 -11853 0
-11855 -11854 0
11855 11853 11854 0
-11850 -9709 0
-11850 11523 0
11850 9709 -11523 0
-11851 9709 0
-11851 -11523 0
11851 -9709 11523 0
-11852 -11850 0
-11852 -11851 0
11852 11850 11851 0
-11847 -9708 0
-11847 11522 0
11847 9708 -11522 0
-11848 9708 0
-11848 -11522 0
11848 -9708 11522 0
-11849 -11847 0
-11849 -11848 0
11849 11847 11848 0
-11844 -9707 0
-11844 11521 0
11844 9707 -11521 0
-11845 9707 0
-11845 -11521 0
11845 -9707 11521 0
-11846 -11844 0
-11846 -11845 0
11846 11844 11845 0
-11841 -9706 0
-11841 11520 0
11841 9706 -11520 0
-11842 9706 0
-11842 -11520 0
11842 -9706 11520 0
-11843 -11841 0
-11843 -11842 0
11843 11841 11842 0
-11838 -9705 0
-11838 11519 0
11838 9705 -11519 0
-11839 9705 0
-11839 -11519 0
11839 -9705 11519 0
-11840 -11838 0
-11840 -11839 0
11840 11838 11839 0
-11835 -9704 0
-11835 11518 0
11835 9704 -11518 0
-11836 9704 0
-11836 -11518 0
11836 -9704 11518 0
-11837 -11835 0
-11837 -11836 0
11837 11835 11836 0
-11829 -9702 0
-11829 11516 0
11829 9702 -11516 0
-11830 9702 0
-11830 -11516 0
11830 -9702 11516 0
-11831 -11829 0
-11831 -11830 0
11831 11829 11830 0
-11832 -9703 0
-11832 11517 0
11832 9703 -11517 0
-11833 9703 0
-11833 -11517 0
11833 -9703 11517 0
-11834 -11832 0
-11834 -11833 0
11834 11832 11833 0
-12015 11831 0
-12015 11834 0
12015 -11831 -11834 0
-12016 11837 0
-12016 12015 0
12016 -11837 -12015 0
-12017 11840 0
-12017 12016 0
12017 -11840 -12016 0
-12018 11843 0
-12018 12017 0
12018 -11843 -12017 0
-12019 11846 0
-12019 12018 0
12019 -11846 -12018 0
-12020 11849 0
-12020 12019 0
12020 -11849 -12019 0
-12021 11852 0
-12021 12020 0
12021 -11852 -12020 0
-12022 11855 0
-12022 12021 0
12022 -11855 -12021 0
-12023 11858 0
-12023 12022 0
12023 -11858 -12022 0
-12024 11861 0
-12024 12023 0
12024 -11861 -12023 0
-12025 11864 0
-12025 12024 0
12025 -11864 -12024 0
-12026 11867 0
-12026 12025 0
12026 -11867 -12025 0
-12027 11870 0
-12027 12026 0
12027 -11870 -12026 0
-12028 11873 0
-12028 12027 0
12028 -11873 -12027 0
-12029 11876 0
-12029 12028 0
12029 -11876 -12028 0
-12030 11879 0
-12030 12029 0
12030 -11879 -12029 0
-12031 11882 0
-12031 12030 0
12031 -11882 -12030 0
-12032 11885 0
-12032 12031 0
12032 -11885 -12031 0
-12033 11888 0
-12033 12032 0
12033 -11888 -12032 0
-12034 11891 0
-12034 12033 0
12034 -11891 -12033 0
-12035 11894 0
-12035 12034 0
12035 -11894 -12034 0
-12036 11897 0
-12036 12035 0
12036 -11897 -12035 0
-12037 11900 0
-12037 12036 0
12037 -11900 -12036 0
-12038 11903 0
-12038 12037 0
12038 -11903 -12037 0
-12039 11906 0
-12039 12038 0
12039 -11906 -12038 0
-12040 11909 0
-12040 12039 0
12040 -11909 -12039 0
-12041 11912 0
-12041 12040 0
12041 -11912 -12040 0
-12042 11915 0
-12042 12041 0
12042 -11915 -12041 0
-12043 11918 0
-12043 12042 0
12043 -11918 -12042 0
-12044 11921 0
-12044 12043 0
12044 -11921 -12043 0
-12045 11924 0
-12045 12044 0
12045 -11924 -12044 0
-12046 11927 0
-12046 12045 0
12046 -11927 -12045 0
-12047 11930 0
-12047 12046 0
12047 -11930 -12046 0
-12048 11933 0
-12048 12047 0
12048 -11933 -12047 0
-12049 11936 0
-12049 12048 0
12049 -11936 -12048 0
-12050 11939 0
-12050 12049 0
12050 -11939 -12049 0
-12051 11942 0
-12051 12050 0
12051 -11942 -12050 0
-12052 11945 0
-12052 12051 0
12052 -11945 -12051 0
-12053 11948 0
-12053 12052 0
12053 -11948 -12052 0
-12054 11951 0
-12054 12053 0
12054 -11951 -12053 0
-12055 11954 0
-12055 12054 0
12055 -11954 -12054 0
-12056 11957 0
-12056 12055 0
12056 -11957 -12055 0
-12057 11960 0
-12057 12056 0
12057 -11960 -12056 0
-12058 11963 0
-12058 12057 0
12058 -11963 -12057 0
-12059 11966 0
-12059 12058 0
12059 -11966 -12058 0
-12060 11969 0
-12060 12059 0
12060 -11969 -12059 0
-12061 11972 0
-12061 12060 0
12061 -11972 -12060 0
-12062 11975 0
-12062 12061 0
12062 -11975 -12061 0
-12063 11978 0
-12063 12062 0
12063 -11978 -12062 0
-12064 11981 0
-12064 12063 0
12064 -11981 -12063 0
-12065 11984 0
-12065 12064 0
12065 -11984 -12064 0
-12066 11987 0
-12066 12065 0
12066 -11987 -12065 0
-12067 11990 0
-12067 12066 0
12067 -11990 -12066 0
-12068 11993 0
-12068 12067 0
12068 -11993 -12067 0
-12069 11996 0
-12069 12068 0
12069 -11996 -12068 0
-12070 11999 0
-12070 12069 0
12070 -11999 -12069 0
-12071 12002 0
-12071 12070 0
12071 -12002 -12070 0
-12072 12005 0
-12072 12071 0
12072 -12005 -12071 0
-12073 12008 0
-12073 12072 0
12073 -12008 -12072 0
-12074 12011 0
-12074 12073 0
12074 -12011 -12073 0
-12075 12014 0
-12075 12074 0
12075 -12014 -12074 0
-12076 -11578 0
-12076 12075 0
12076 11578 -12075 0
-12077 -9658 0
-12077 -12076 0
12077 9658 12076 0
-12078 11828 0
-12078 -12077 0
12078 -11828 12077 0
12142 -17332 0
-12142 17332 0
12141 -17331 0
-12141 17331 0
-12566 10325 0
-12566 10326 0
12566 -10325 -10326 0
-12559 10324 0
-12559 10325 0
12559 -10324 -10325 0
-12552 10323 0
-12552 10324 0
12552 -10323 -10324 0
-12545 10322 0
-12545 10323 0
12545 -10322 -10323 0
-12538 10321 0
-12538 10322 0
12538 -10321 -10322 0
-12531 10320 0
-12531 10321 0
12531 -10320 -10321 0
-12524 10319 0
-12524 10320 0
12524 -10319 -10320 0
-12517 10318 0
-12517 10319 0
12517 -10318 -10319 0
-12510 10317 0
-12510 10318 0
12510 -10317 -10318 0
-12503 10316 0
-12503 10317 0
12503 -10316 -10317 0
-12496 10315 0
-12496 10316 0
12496 -10315 -10316 0
-12489 10314 0
-12489 10315 0
12489 -10314 -10315 0
-12482 10313 0
-12482 10314 0
12482 -10313 -10314 0
-12475 10312 0
-12475 10313 0
12475 -10312 -10313 0
-12468 10311 0
-12468 10312 0
12468 -10311 -10312 0
-12461 10310 0
-12461 10311 0
12461 -10310 -10311 0
-12454 10309 0
-12454 10310 0
12454 -10309 -10310 0
-12447 10308 0
-12447 10309 0
12447 -10308 -10309 0
-12440 10307 0
-12440 10308 0
12440 -10307 -10308 0
-12433 10306 0
-12433 10307 0
12433 -10306 -10307 0
-12426 10305 0
-12426 10306 0
12426 -10305 -10306 0
-12419 10304 0
-12419 10305 0
12419 -10304 -10305 0
-12412 10303 0
-12412 10304 0
12412 -10303 -10304 0
-12405 10302 0
-12405 10303 0
12405 -10302 -10303 0
-12398 10301 0
-12398 10302 0
12398 -10301 -10302 0
-12391 10300 0
-12391 10301 0
12391 -10300 -10301 0
-12384 10299 0
-12384 10300 0
12384 -10299 -10300 0
-12377 10298 0
-12377 10299 0
12377 -10298 -10299 0
-12370 10297 0
-12370 10298 0
12370 -10297 -10298 0
-12363 10296 0
-12363 10297 0
12363 -10296 -10297 0
-12356 10295 0
-12356 10296 0
12356 -10295 -10296 0
-12349 10294 0
-12349 10295 0
12349 -10294 -10295 0
-12342 10293 0
-12342 10294 0
12342 -10293 -10294 0
-12335 10292 0
-12335 10293 0
12335 -10292 -10293 0
-12328 10291 0
-12328 10292 0
12328 -10291 -10292 0
-12321 10290 0
-12321 10291 0
12321 -10290 -10291 0
-12314 10289 0
-12314 10290 0
12314 -10289 -10290 0
-12307 10288 0
-12307 10289 0
12307 -10288 -10289 0
-12300 10287 0
-12300 10288 0
12300 -10287 -10288 0
-12293 10286 0
-12293 10287 0
12293 -10286 -10287 0
-12286 10285 0
-12286 10286 0
12286 -10285 -10286 0
-12279 10284 0
-12279 10285 0
12279 -10284 -10285 0
-12272 10283 0
-12272 10284 0
12272 -10283 -10284 0
-12265 10282 0
-12265 10283 0
12265 -10282 -10283 0
-12258 10281 0
-12258 10282 0
12258 -10281 -10282 0
-12251 10280 0
-12251 10281 0
12251 -10280 -10281 0
-12244 10279 0
-12244 10280 0
12244 -10279 -10280 0
-12237 10278 0
-12237 10279 0
12237 -10278 -10279 0
-12230 10277 0
-12230 10278 0
12230 -10277 -10278 0
-12223 10276 0
-12223 10277 0
12223 -10276 -10277 0
-12216 10275 0
-12216 10276 0
12216 -10275 -10276 0
-12209 10274 0
-12209 10275 0
12209 -10274 -10275 0
-12202 10273 0
-12202 10274 0
12202 -10273 -10274 0
-12195 10272 0
-12195 10273 0
12195 -10272 -10273 0
-12188 10271 0
-12188 10272 0
12188 -10271 -10272 0
-12181 10270 0
-12181 10271 0
12181 -10270 -10271 0
-12174 10269 0
-12174 10270 0
12174 -10269 -10270 0
-12167 10268 0
-12167 10269 0
12167 -10268 -10269 0
-12160 10267 0
-12160 10268 0
12160 -10267 -10268 0
-12153 10266 0
-12153 10267 0
12153 -10266 -10267 0
-12146 10265 0
-12146 10266 0
12146 -10265 -10266 0
-12143 10264 0
-12143 10265 0
12143 -10264 -10265 0
-12147 -10265 0
-12147 -10266 0
12147 10265 10266 0
-12148 -12146 0
-12148 -12147 0
12148 12146 12147 0
-12149 12143 0
-12149 12148 0
12149 -12143 -12148 0
-12152 -12146 0
-12152 -12149 0
12152 12146 12149 0
-12154 -10266 0
-12154 -10267 0
12154 10266 10267 0
-12155 -12153 0
-12155 -12154 0
12155 12153 12154 0
-12156 -12152 0
-12156 12155 0
12156 12152 -12155 0
-12159 -12153 0
-12159 -12156 0
12159 12153 12156 0
-12161 -10267 0
-12161 -10268 0
12161 10267 10268 0
-12162 -12160 0
-12162 -12161 0
12162 12160 12161 0
-12163 -12159 0
-12163 12162 0
12163 12159 -12162 0
-12166 -12160 0
-12166 -12163 0
12166 12160 12163 0
-12168 -10268 0
-12168 -10269 0
12168 10268 10269 0
-12169 -12167 0
-12169 -12168 0
12169 12167 12168 0
-12170 -12166 0
-12170 12169 0
12170 12166 -12169 0
-12173 -12167 0
-12173 -12170 0
12173 12167 12170 0
-12175 -10269 0
-12175 -10270 0
12175 10269 10270 0
-12176 -12174 0
-12176 -12175 0
12176 12174 12175 0
-12177 -12173 0
-12177 12176 0
12177 12173 -12176 0
-12180 -12174 0
-12180 -12177 0
12180 12174 12177 0
-12182 -10270 0
-12182 -10271 0
12182 10270 10271 0
-12183 -12181 0
-12183 -12182 0
12183 12181 12182 0
-12184 -12180 0
-12184 12183 0
12184 12180 -12183 0
-12187 -12181 0
-12187 -12184 0
12187 12181 12184 0
-12189 -10271 0
-12189 -10272 0
12189 10271 10272 0
-12190 -12188 0
-12190 -12189 0
12190 12188 12189 0
-12191 -12187 0
-12191 12190 0
12191 12187 -12190 0
-12194 -12188 0
-12194 -12191 0
12194 12188 12191 0
-12196 -10272 0
-12196 -10273 0
12196 10272 10273 0
-12197 -12195 0
-12197 -12196 0
12197 12195 12196 0
-12198 -12194 0
-12198 12197 0
12198 12194 -12197 0
-12201 -12195 0
-12201 -12198 0
12201 12195 12198 0
-12203 -10273 0
-12203 -10274 0
12203 10273 10274 0
-12204 -12202 0
-12204 -12203 0
12204 12202 12203 0
-12205 -12201 0
-12205 12204 0
12205 12201 -12204 0
-12208 -12202 0
-12208 -12205 0
12208 12202 12205 0
-12210 -10274 0
-12210 -10275 0
12210 10274 10275 0
-12211 -12209 0
-12211 -12210 0
12211 12209 12210 0
-12212 -12208 0
-12212 12211 0
12212 12208 -12211 0
-12215 -12209 0
-12215 -12212 0
12215 12209 12212 0
-12217 -10275 0
-12217 -10276 0
12217 10275 10276 0
-12218 -12216 0
-12218 -12217 0
12218 12216 12217 0
-12219 -12215 0
-12219 12218 0
12219 12215 -12218 0
-12222 -12216 0
-12222 -12219 0
12222 12216 12219 0
-12224 -10276 0
-12224 -10277 0
12224 10276 10277 0
-12225 -12223 0
-12225 -12224 0
12225 12223 12224 0
-12226 -12222 0
-12226 12225 0
12226 12222 -12225 0
-12229 -12223 0
-12229 -12226 0
12229 12223 12226 0
-12231 -10277 0
-12231 -10278 0
12231 10277 10278 0
-12232 -12230 0
-12232 -12231 0
12232 12230 12231 0
-12233 -12229 0
-12233 12232 0
12233 12229 -12232 0
-12236 -12230 0
-12236 -12233 0
12236 12230 12233 0
-12238 -10278 0
-12238 -10279 0
12238 10278 10279 0
-12239 -12237 0
-12239 -12238 0
12239 12237 12238 0
-12240 -12236 0
-12240 12239 0
12240 12236 -12239 0
-12243 -12237 0
-12243 -12240 0
12243 12237 12240 0
-12245 -10279 0
-12245 -10280 0
12245 10279 10280 0
-12246 -12244 0
-12246 -12245 0
12246 12244 12245 0
-12247 -12243 0
-12247 12246 0
12247 12243 -12246 0
-12250 -12244 0
-12250 -12247 0
12250 12244 12247 0
-12252 -10280 0
-12252 -10281 0
12252 10280 10281 0
-12253 -12251 0
-12253 -12252 0
12253 12251 12252 0
-12254 -12250 0
-12254 12253 0
12254 12250 -12253 0
-12257 -12251 0
-12257 -12254 0
12257 12251 12254 0
-12259 -10281 0
-12259 -10282 0
12259 10281 10282 0
-12260 -12258 0
-12260 -12259 0
12260 12258 12259 0
-12261 -12257 0
-12261 12260 0
12261 12257 -12260 0
-12264 -12258 0
-12264 -12261 0
12264 12258 12261 0
-12266 -10282 0
-12266 -10283 0
12266 10282 10283 0
-12267 -12265 0
-12267 -12266 0
12267 12265 12266 0
-12268 -12264 0
-12268 12267 0
12268 12264 -12267 0
-12271 -12265 0
-12271 -12268 0
12271 12265 12268 0
-12273 -10283 0
-12273 -10284 0
12273 10283 10284 0
-12274 -12272 0
-12274 -12273 0
12274 12272 12273 0
-12275 -12271 0
-12275 12274 0
12275 12271 -12274 0
-12278 -12272 0
-12278 -12275 0
12278 12272 12275 0
-12280 -10284 0
-12280 -10285 0
12280 10284 10285 0
-12281 -12279 0
-12281 -12280 0
12281 12279 12280 0
-12282 -12278 0
-12282 12281 0
12282 12278 -12281 0
-12285 -12279 0
-12285 -12282 0
12285 12279 12282 0
-12287 -10285 0
-12287 -10286 0
12287 10285 10286 0
-12288 -12286 0
-12288 -12287 0
12288 12286 12287 0
-12289 -12285 0
-12289 12288 0
12289 12285 -12288 0
-12292 -12286 0
-12292 -12289 0
12292 12286 12289 0
-12294 -10286 0
-12294 -10287 0
12294 10286 10287 0
-12295 -12293 0
-12295 -12294 0
12295 12293 12294 0
-12296 -12292 0
-12296 12295 0
12296 12292 -12295 0
-12299 -12293 0
-12299 -12296 0
12299 12293 12296 0
-12301 -10287 0
-12301 -10288 0
12301 10287 10288 0
-12302 -12300 0
-12302 -12301 0
12302 12300 12301 0
-12303 -12299 0
-12303 12302 0
12303 12299 -12302 0
-12306 -12300 0
-12306 -12303 0
12306 12300 12303 0
-12308 -10288 0
-12308 -10289 0
12308 10288 10289 0
-12309 -12307 0
-12309 -12308 0
12309 12307 12308 0
-12310 -12306 0
-12310 12309 0
12310 12306 -12309 0
-12313 -12307 0
-12313 -12310 0
12313 12307 12310 0
-12315 -10289 0
-12315 -10290 0
12315 10289 10290 0
-12316 -12314 0
-12316 -12315 0
12316 12314 12315 0
-12317 -12313 0
-12317 12316 0
12317 12313 -12316 0
-12320 -12314 0
-12320 -12317 0
12320 12314 12317 0
-12322 -10290 0
-12322 -10291 0
12322 10290 10291 0
-12323 -12321 0
-12323 -12322 0
12323 12321 12322 0
-12324 -12320 0
-12324 12323 0
12324 12320 -12323 0
-12327 -12321 0
-12327 -12324 0
12327 12321 12324 0
-12329 -10291 0
-12329 -10292 0
12329 10291 10292 0
-12330 -12328 0
-12330 -12329 0
12330 12328 12329 0
-12331 -12327 0
-12331 12330 0
12331 12327 -12330 0
-12334 -12328 0
-12334 -12331 0
12334 12328 12331 0
-12336 -10292 0
-12336 -10293 0
12336 10292 10293 0
-12337 -12335 0
-12337 -12336 0
12337 12335 12336 0
-12338 -12334 0
-12338 12337 0
12338 12334 -12337 0
-12341 -12335 0
-12341 -12338 0
12341 12335 12338 0
-12343 -10293 0
-12343 -10294 0
12343 10293 10294 0
-12344 -12342 0
-12344 -12343 0
12344 12342 12343 0
-12345 -12341 0
-12345 12344 0
12345 12341 -12344 0
-12348 -12342 0
-12348 -12345 0
12348 12342 12345 0
-12350 -10294 0
-12350 -10295 0
12350 10294 10295 0
-12351 -12349 0
-12351 -12350 0
12351 12349 12350 0
-12352 -12348 0
-12352 12351 0
12352 12348 -12351 0
-12355 -12349 0
-12355 -12352 0
12355 12349 12352 0
-12357 -10295 0
-12357 -10296 0
12357 10295 10296 0
-12358 -12356 0
-12358 -12357 0
12358 12356 12357 0
-12359 -12355 0
-12359 12358 0
12359 12355 -12358 0
-12362 -12356 0
-12362 -12359 0
12362 12356 12359 0
-12364 -10296 0
-12364 -10297 0
12364 10296 10297 0
-12365 -12363 0
-12365 -12364 0
12365 12363 12364 0
-12366 -12362 0
-12366 12365 0
12366 12362 -12365 0
-12369 -12363 0
-12369 -12366 0
12369 12363 12366 0
-12371 -10297 0
-12371 -10298 0
12371 10297 10298 0
-12372 -12370 0
-12372 -12371 0
12372 12370 12371 0
-12373 -12369 0
-12373 12372 0
12373 12369 -12372 0
-12376 -12370 0
-12376 -12373 0
12376 12370 12373 0
-12378 -10298 0
-12378 -10299 0
12378 10298 10299 0
-12379 -12377 0
-12379 -12378 0
12379 12377 12378 0
-12380 -12376 0
-12380 12379 0
12380 12376 -12379 0
-12383 -12377 0
-12383 -12380 0
12383 12377 12380 0
-12385 -10299 0
-12385 -10300 0
12385 10299 10300 0
-12386 -12384 0
-12386 -12385 0
12386 12384 12385 0
-12387 -12383 0
-12387 12386 0
12387 12383 -12386 0
-12390 -12384 0
-12390 -12387 0
12390 12384 12387 0
-12392 -10300 0
-12392 -10301 0
12392 10300 10301 0
-12393 -12391 0
-12393 -12392 0
12393 12391 12392 0
-12394 -12390 0
-12394 12393 0
12394 12390 -12393 0
-12397 -12391 0
-12397 -12394 0
12397 12391 12394 0
-12399 -10301 0
-12399 -10302 0
12399 10301 10302 0
-12400 -12398 0
-12400 -12399 0
12400 12398 12399 0
-12401 -12397 0
-12401 12400 0
12401 12397 -12400 0
-12404 -12398 0
-12404 -12401 0
12404 12398 12401 0
-12406 -10302 0
-12406 -10303 0
12406 10302 10303 0
-12407 -12405 0
-12407 -12406 0
12407 12405 12406 0
-12408 -12404 0
-12408 12407 0
12408 12404 -12407 0
-12411 -12405 0
-12411 -12408 0
12411 12405 12408 0
-12413 -10303 0
-12413 -10304 0
12413 10303 10304 0
-12414 -12412 0
-12414 -12413 0
12414 12412 12413 0
-12415 -12411 0
-12415 12414 0
12415 12411 -12414 0
-12418 -12412 0
-12418 -12415 0
12418 12412 12415 0
-12420 -10304 0
-12420 -10305 0
12420 10304 10305 0
-12421 -12419 0
-12421 -12420 0
12421 12419 12420 0
-12422 -12418 0
-12422 12421 0
12422 12418 -12421 0
-12425 -12419 0
-12425 -12422 0
12425 12419 12422 0
-12427 -10305 0
-12427 -10306 0
12427 10305 10306 0
-12428 -12426 0
-12428 -12427 0
12428 12426 12427 0
-12429 -12425 0
-12429 12428 0
12429 12425 -12428 0
-12432 -12426 0
-12432 -12429 0
12432 12426 12429 0
-12434 -10306 0
-12434 -10307 0
12434 10306 10307 0
-12435 -12433 0
-12435 -12434 0
12435 12433 12434 0
-12436 -12432 0
-12436 12435 0
12436 12432 -12435 0
-12439 -12433 0
-12439 -12436 0
12439 12433 12436 0
-12441 -10307 0
-12441 -10308 0
12441 10307 10308 0
-12442 -12440 0
-12442 -12441 0
12442 12440 12441 0
-12443 -12439 0
-12443 12442 0
12443 12439 -12442 0
-12446 -12440 0
-12446 -12443 0
12446 12440 12443 0
-12448 -10308 0
-12448 -10309 0
12448 10308 10309 0
-12449 -12447 0
-12449 -12448 0
12449 12447 12448 0
-12450 -12446 0
-12450 12449 0
12450 12446 -12449 0
-12453 -12447 0
-12453 -12450 0
12453 12447 12450 0
-12455 -10309 0
-12455 -10310 0
12455 10309 10310 0
-12456 -12454 0
-12456 -12455 0
12456 12454 12455 0
-12457 -12453 0
-12457 12456 0
12457 12453 -12456 0
-12460 -12454 0
-12460 -12457 0
12460 12454 12457 0
-12462 -10310 0
-12462 -10311 0
12462 10310 10311 0
-12463 -12461 0
-12463 -12462 0
12463 12461 12462 0
-12464 -12460 0
-12464 12463 0
12464 12460 -12463 0
-12467 -12461 0
-12467 -12464 0
12467 12461 12464 0
-12469 -10311 0
-12469 -10312 0
12469 10311 10312 0
-12470 -12468 0
-12470 -12469 0
12470 12468 12469 0
-12471 -12467 0
-12471 12470 0
12471 12467 -12470 0
-12474 -12468 0
-12474 -12471 0
12474 12468 12471 0
-12476 -10312 0
-12476 -10313 0
12476 10312 10313 0
-12477 -12475 0
-12477 -12476 0
12477 12475 12476 0
-12478 -12474 0
-12478 12477 0
12478 12474 -12477 0
-12481 -12475 0
-12481 -12478 0
12481 12475 12478 0
-12483 -10313 0
-12483 -10314 0
12483 10313 10314 0
-12484 -12482 0
-12484 -12483 0
12484 12482 12483 0
-12485 -12481 0
-12485 12484 0
12485 12481 -12484 0
-12488 -12482 0
-12488 -12485 0
12488 12482 12485 0
-12490 -10314 0
-12490 -10315 0
12490 10314 10315 0
-12491 -12489 0
-12491 -12490 0
12491 12489 12490 0
-12492 -12488 0
-12492 12491 0
12492 12488 -12491 0
-12495 -12489 0
-12495 -12492 0
12495 12489 12492 0
-12497 -10315 0
-12497 -10316 0
12497 10315 10316 0
-12498 -12496 0
-12498 -12497 0
12498 12496 12497 0
-12499 -12495 0
-12499 12498 0
12499 12495 -12498 0
-12502 -12496 0
-12502 -12499 0
12502 12496 12499 0
-12504 -10316 0
-12504 -10317 0
12504 10316 10317 0
-12505 -12503 0
-12505 -12504 0
12505 12503 12504 0
-12506 -12502 0
-12506 12505 0
12506 12502 -12505 0
-12509 -12503 0
-12509 -12506 0
12509 12503 12506 0
-12511 -10317 0
-12511 -10318 0
12511 10317 10318 0
-12512 -12510 0
-12512 -12511 0
12512 12510 12511 0
-12513 -12509 0
-12513 12512 0
12513 12509 -12512 0
-12516 -12510 0
-12516 -12513 0
12516 12510 12513 0
-12518 -10318 0
-12518 -10319 0
12518 10318 10319 0
-12519 -12517 0
-12519 -12518 0
12519 12517 12518 0
-12520 -12516 0
-12520 12519 0
12520 12516 -12519 0
-12523 -12517 0
-12523 -12520 0
12523 12517 12520 0
-12525 -10319 0
-12525 -10320 0
12525 10319 10320 0
-12526 -12524 0
-12526 -12525 0
12526 12524 12525 0
-12527 -12523 0
-12527 12526 0
12527 12523 -12526 0
-12530 -12524 0
-12530 -12527 0
12530 12524 12527 0
-12532 -10320 0
-12532 -10321 0
12532 10320 10321 0
-12533 -12531 0
-12533 -12532 0
12533 12531 12532 0
-12534 -12530 0
-12534 12533 0
12534 12530 -12533 0
-12537 -12531 0
-12537 -12534 0
12537 12531 12534 0
-12539 -10321 0
-12539 -10322 0
12539 10321 10322 0
-12540 -12538 0
-12540 -12539 0
12540 12538 12539 0
-12541 -12537 0
-12541 12540 0
12541 12537 -12540 0
-12544 -12538 0
-12544 -12541 0
12544 12538 12541 0
-12546 -10322 0
-12546 -10323 0
12546 10322 10323 0
-12547 -12545 0
-12547 -12546 0
12547 12545 12546 0
-12548 -12544 0
-12548 12547 0
12548 12544 -12547 0
-12551 -12545 0
-12551 -12548 0
12551 12545 12548 0
-12553 -10323 0
-12553 -10324 0
12553 10323 10324 0
-12554 -12552 0
-12554 -12553 0
12554 12552 12553 0
-12555 -12551 0
-12555 12554 0
12555 12551 -12554 0
-12558 -12552 0
-12558 -12555 0
12558 12552 12555 0
-12560 -10324 0
-12560 -10325 0
12560 10324 10325 0
-12561 -12559 0
-12561 -12560 0
12561 12559 12560 0
-12562 -12558 0
-12562 12561 0
12562 12558 -12561 0
-12565 -12559 0
-12565 -12562 0
12565 12559 12562 0
-12567 -10325 0
-12567 -10326 0
12567 10325 10326 0
-12568 -12566 0
-12568 -12567 0
12568 12566 12567 0
-12569 -12565 0
-12569 12568 0
12569 12565 -12568 0
-12572 -12566 0
-12572 -12569 0
12572 12566 12569 0
-12573 10326 0
-12573 10327 0
12573 -10326 -10327 0
-12574 -10326 0
-12574 -10327 0
12574 10326 10327 0
-12575 -12573 0
-12575 -12574 0
12575 12573 12574 0
-12576 -12572 0
-12576 12575 0
12576 12572 -12575 0
-12577 12572 0
-12577 -12575 0
12577 -12572 12575 0
-12578 -12576 0
-12578 -12577 0
12578 12576 12577 0
-12570 12565 0
-12570 -12568 0
12570 -12565 12568 0
-12571 -12569 0
-12571 -12570 0
12571 12569 12570 0
-12563 12558 0
-12563 -12561 0
12563 -12558 12561 0
-12564 -12562 0
-12564 -12563 0
12564 12562 12563 0
-12556 12551 0
-12556 -12554 0
12556 -12551 12554 0
-12557 -12555 0
-12557 -12556 0
12557 12555 12556 0
-12549 12544 0
-12549 -12547 0
12549 -12544 12547 0
-12550 -12548 0
-12550 -12549 0
12550 12548 12549 0
-12542 12537 0
-12542 -12540 0
12542 -12537 12540 0
-12543 -12541 0
-12543 -12542 0
12543 12541 12542 0
-12535 12530 0
-12535 -12533 0
12535 -12530 12533 0
-12536 -12534 0
-12536 -12535 0
12536 12534 12535 0
-12528 12523 0
-12528 -12526 0
12528 -12523 12526 0
-12529 -12527 0
-12529 -12528 0
12529 12527 12528 0
-12521 12516 0
-12521 -12519 0
12521 -12516 12519 0
-12522 -12520 0
-12522 -12521 0
12522 12520 12521 0
-12514 12509 0
-12514 -12512 0
12514 -12509 12512 0
-12515 -12513 0
-12515 -12514 0
12515 12513 12514 0
-12507 12502 0
-12507 -12505 0
12507 -12502 12505 0
-12508 -12506 0
-12508 -12507 0
12508 12506 12507 0
-12500 12495 0
-12500 -12498 0
12500 -12495 12498 0
-12501 -12499 0
-12501 -12500 0
12501 12499 12500 0
-12493 12488 0
-12493 -12491 0
12493 -12488 12491 0
-12494 -12492 0
-12494 -12493 0
12494 12492 12493 0
-12486 12481 0
-12486 -12484 0
12486 -12481 12484 0
-12487 -12485 0
-12487 -12486 0
12487 12485 12486 0
-12479 12474 0
-12479 -12477 0
12479 -12474 12477 0
-12480 -12478 0
-12480 -12479 0
12480 12478 12479 0
-12472 12467 0
-12472 -12470 0
12472 -12467 12470 0
-12473 -12471 0
-12473 -12472 0
12473 12471 12472 0
-12465 12460 0
-12465 -12463 0
12465 -12460 12463 0
-12466 -12464 0
-12466 -12465 0
12466 12464 12465 0
-12458 12453 0
-12458 -12456 0
12458 -12453 12456 0
-12459 -12457 0
-12459 -12458 0
12459 12457 12458 0
-12451 12446 0
-12451 -12449 0
12451 -12446 12449 0
-12452 -12450 0
-12452 -12451 0
12452 12450 12451 0
-12444 12439 0
-12444 -12442 0
12444 -12439 12442 0
-12445 -12443 0
-12445 -12444 0
12445 12443 12444 0
-12437 12432 0
-12437 -12435 0
12437 -12432 12435 0
-12438 -12436 0
-12438 -12437 0
12438 12436 12437 0
-12430 12425 0
-12430 -12428 0
12430 -12425 12428 0
-12431 -12429 0
-12431 -12430 0
12431 12429 12430 0
-12423 12418 0
-12423 -12421 0
12423 -12418 12421 0
-12424 -12422 0
-12424 -12423 0
12424 12422 12423 0
-12416 12411 0
-12416 -12414 0
12416 -12411 12414 0
-12417 -12415 0
-12417 -12416 0
12417 12415 12416 0
-12409 12404 0
-12409 -12407 0
12409 -12404 12407 0
-12410 -12408 0
-12410 -12409 0
12410 12408 12409 0
-12402 12397 0
-12402 -12400 0
12402 -12397 12400 0
-12403 -12401 0
-12403 -12402 0
12403 12401 12402 0
-12395 12390 0
-12395 -12393 0
12395 -12390 12393 0
-12396 -12394 0
-12396 -12395 0
12396 12394 12395 0
-12388 12383 0
-12388 -12386 0
12388 -12383 12386 0
-12389 -12387 0
-12389 -12388 0
12389 12387 12388 0
-12381 12376 0
-12381 -12379 0
12381 -12376 12379 0
-12382 -12380 0
-12382 -12381 0
12382 12380 12381 0
-12374 12369 0
-12374 -12372 0
12374 -12369 12372 0
-12375 -12373 0
-12375 -12374 0
12375 12373 12374 0
-12367 12362 0
-12367 -12365 0
12367 -12362 12365 0
-12368 -12366 0
-12368 -12367 0
12368 12366 12367 0
-12360 12355 0
-12360 -12358 0
12360 -12355 12358 0
-12361 -12359 0
-12361 -12360 0
12361 12359 12360 0
-12353 12348 0
-12353 -12351 0
12353 -12348 12351 0
-12354 -12352 0
-12354 -12353 0
12354 12352 12353 0
-12346 12341 0
-12346 -12344 0
12346 -12341 12344 0
-12347 -12345 0
-12347 -12346 0
12347 12345 12346 0
-12339 12334 0
-12339 -12337 0
12339 -12334 12337 0
-12340 -12338 0
-12340 -12339 0
12340 12338 12339 0
-12332 12327 0
-12332 -12330 0
12332 -12327 12330 0
-12333 -12331 0
-12333 -12332 0
12333 12331 12332 0
-12325 12320 0
-12325 -12323 0
12325 -12320 12323 0
-12326 -12324 0
-12326 -12325 0
12326 12324 12325 0
-12318 12313 0
-12318 -12316 0
12318 -12313 12316 0
-12319 -12317 0
-12319 -12318 0
12319 12317 12318 0
-12311 12306 0
-12311 -12309 0
12311 -12306 12309 0
-12312 -12310 0
-12312 -12311 0
12312 12310 12311 0
-12304 12299 0
-12304 -12302 0
12304 -12299 12302 0
-12305 -12303 0
-12305 -12304 0
12305 12303 12304 0
-12297 12292 0
-12297 -12295 0
12297 -12292 12295 0
-12298 -12296 0
-12298 -12297 0
12298 12296 12297 0
-12290 12285 0
-12290 -12288 0
12290 -12285 12288 0
-12291 -12289 0
-12291 -12290 0
12291 12289 12290 0
-12283 12278 0
-12283 -12281 0
12283 -12278 12281 0
-12284 -12282 0
-12284 -12283 0
12284 12282 12283 0
-12276 12271 0
-12276 -12274 0
12276 -12271 12274 0
-12277 -12275 0
-12277 -12276 0
12277 12275 12276 0
-12269 12264 0
-12269 -12267 0
12269 -12264 12267 0
-12270 -12268 0
-12270 -12269 0
12270 12268 12269 0
-12262 12257 0
-12262 -12260 0
12262 -12257 12260 0
-12263 -12261 0
-12263 -12262 0
12263 12261 12262 0
-12255 12250 0
-12255 -12253 0
12255 -12250 12253 0
-12256 -12254 0
-12256 -12255 0
12256 12254 12255 0
-12248 12243 0
-12248 -12246 0
12248 -12243 12246 0
-12249 -12247 0
-12249 -12248 0
12249 12247 12248 0
-12241 12236 0
-12241 -12239 0
12241 -12236 12239 0
-12242 -12240 0
-12242 -12241 0
12242 12240 12241 0
-12234 12229 0
-12234 -12232 0
12234 -12229 12232 0
-12235 -12233 0
-12235 -12234 0
12235 12233 12234 0
-12227 12222 0
-12227 -12225 0
12227 -12222 12225 0
-12228 -12226 0
-12228 -12227 0
12228 12226 12227 0
-12220 12215 0
-12220 -12218 0
12220 -12215 12218 0
-12221 -12219 0
-12221 -12220 0
12221 12219 12220 0
-12213 12208 0
-12213 -12211 0
12213 -12208 12211 0
-12214 -12212 0
-12214 -12213 0
12214 12212 12213 0
-12206 12201 0
-12206 -12204 0
12206 -12201 12204 0
-12207 -12205 0
-12207 -12206 0
12207 12205 12206 0
-12199 12194 0
-12199 -12197 0
12199 -12194 12197 0
-12200 -12198 0
-12200 -12199 0
12200 12198 12199 0
-12192 12187 0
-12192 -12190 0
12192 -12187 12190 0
-12193 -12191 0
-12193 -12192 0
12193 12191 12192 0
-12185 12180 0
-12185 -12183 0
12185 -12180 12183 0
-12186 -12184 0
-12186 -12185 0
12186 12184 12185 0
-12178 12173 0
-12178 -12176 0
12178 -12173 12176 0
-12179 -12177 0
-12179 -12178 0
12179 12177 12178 0
-12171 12166 0
-12171 -12169 0
12171 -12166 12169 0
-12172 -12170 0
-12172 -12171 0
12172 12170 12171 0
-12164 12159 0
-12164 -12162 0
12164 -12159 12162 0
-12165 -12163 0
-12165 -12164 0
12165 12163 12164 0
-12157 12152 0
-12157 -12155 0
12157 -12152 12155 0
-12158 -12156 0
-12158 -12157 0
12158 12156 12157 0
-12150 -12143 0
-12150 -12148 0
12150 12143 12148 0
-12151 -12149 0
-12151 -12150 0
12151 12149 12150 0
-12144 -10264 0
-12144 -10265 0
12144 10264 10265 0
-12145 -12143 0
-12145 -12144 0
12145 12143 12144 0
-12580 10264 0
-12580 12145 0
12580 -10264 -12145 0
-12583 12151 0
-12583 12580 0
12583 -12151 -12580 0
-12586 12158 0
-12586 12583 0
12586 -12158 -12583 0
-12589 12165 0
-12589 12586 0
12589 -12165 -12586 0
-12592 12172 0
-12592 12589 0
12592 -12172 -12589 0
-12595 12179 0
-12595 12592 0
12595 -12179 -12592 0
-12598 12186 0
-12598 12595 0
12598 -12186 -12595 0
-12601 12193 0
-12601 12598 0
12601 -12193 -12598 0
-12604 12200 0
-12604 12601 0
12604 -12200 -12601 0
-12607 12207 0
-12607 12604 0
12607 -12207 -12604 0
-12610 12214 0
-12610 12607 0
12610 -12214 -12607 0
-12613 12221 0
-12613 12610 0
12613 -12221 -12610 0
-12616 12228 0
-12616 12613 0
12616 -12228 -12613 0
-12619 12235 0
-12619 12616 0
12619 -12235 -12616 0
-12622 12242 0
-12622 12619 0
12622 -12242 -12619 0
-12625 12249 0
-12625 12622 0
12625 -12249 -12622 0
-12628 12256 0
-12628 12625 0
12628 -12256 -12625 0
-12631 12263 0
-12631 12628 0
12631 -12263 -12628 0
-12634 12270 0
-12634 12631 0
12634 -12270 -12631 0
-12637 12277 0
-12637 12634 0
12637 -12277 -12634 0
-12640 12284 0
-12640 12637 0
12640 -12284 -12637 0
-12643 12291 0
-12643 12640 0
12643 -12291 -12640 0
-12646 12298 0
-12646 12643 0
12646 -12298 -12643 0
-12649 12305 0
-12649 12646 0
12649 -12305 -12646 0
-12652 12312 0
-12652 12649 0
12652 -12312 -12649 0
-12655 12319 0
-12655 12652 0
12655 -12319 -12652 0
-12658 12326 0
-12658 12655 0
12658 -12326 -12655 0
-12661 12333 0
-12661 12658 0
12661 -12333 -12658 0
-12664 12340 0
-12664 12661 0
12664 -12340 -12661 0
-12667 12347 0
-12667 12664 0
12667 -12347 -12664 0
-12670 12354 0
-12670 12667 0
12670 -12354 -12667 0
-12673 12361 0
-12673 12670 0
12673 -12361 -12670 0
-12676 12368 0
-12676 12673 0
12676 -12368 -12673 0
-12679 12375 0
-12679 12676 0
12679 -12375 -12676 0
-12682 12382 0
-12682 12679 0
12682 -12382 -12679 0
-12685 12389 0
-12685 12682 0
12685 -12389 -12682 0
-12688 12396 0
-12688 12685 0
12688 -12396 -12685 0
-12691 12403 0
-12691 12688 0
12691 -12403 -12688 0
-12694 12410 0
-12694 12691 0
12694 -12410 -12691 0
-12697 12417 0
-12697 12694 0
12697 -12417 -12694 0
-12700 12424 0
-12700 12697 0
12700 -12424 -12697 0
-12703 12431 0
-12703 12700 0
12703 -12431 -12700 0
-12706 12438 0
-12706 12703 0
12706 -12438 -12703 0
-12709 12445 0
-12709 12706 0
12709 -12445 -12706 0
-12712 12452 0
-12712 12709 0
12712 -12452 -12709 0
-12715 12459 0
-12715 12712 0
12715 -12459 -12712 0
-12718 12466 0
-12718 12715 0
12718 -12466 -12715 0
-12721 12473 0
-12721 12718 0
12721 -12473 -12718 0
-12724 12480 0
-12724 12721 0
12724 -12480 -12721 0
-12727 12487 0
-12727 12724 0
12727 -12487 -12724 0
-12730 12494 0
-12730 12727 0
12730 -12494 -12727 0
-12733 12501 0
-12733 12730 0
12733 -12501 -12730 0
-12736 12508 0
-12736 12733 0
12736 -12508 -12733 0
-12739 12515 0
-12739 12736 0
12739 -12515 -12736 0
-12742 12522 0
-12742 12739 0
12742 -12522 -12739 0
-12745 12529 0
-12745 12742 0
12745 -12529 -12742 0
-12748 12536 0
-12748 12745 0
12748 -12536 -12745 0
-12751 12543 0
-12751 12748 0
12751 -12543 -12748 0
-12754 12550 0
-12754 12751 0
12754 -12550 -12751 0
-12757 12557 0
-12757 12754 0
12757 -12557 -12754 0
-12760 12564 0
-12760 12757 0
12760 -12564 -12757 0
-12763 12571 0
-12763 12760 0
12763 -12571 -12760 0
-12766 12578 0
-12766 12763 0
12766 -12578 -12763 0
-12767 -12578 0
-12767 -12763 0
12767 12578 12763 0
-12768 -12766 0
-12768 -12767 0
12768 12766 12767 0
-12955 12141 0
-12955 -12768 0
12955 -12141 12768 0
-12956 -12141 0
-12956 12768 0
12956 12141 -12768 0
-12957 -12955 0
-12957 -12956 0
12957 12955 12956 0
12140 -17330 0
-12140 17330 0
-12764 -12571 0
-12764 -12760 0
12764 12571 12760 0
-12765 -12763 0
-12765 -12764 0
12765 12763 12764 0
-12952 12140 0
-12952 -12765 0
12952 -12140 12765 0
-12953 -12140 0
-12953 12765 0
12953 12140 -12765 0
-12954 -12952 0
-12954 -12953 0
12954 12952 12953 0
12139 -17329 0
-12139 17329 0
-12761 -12564 0
-12761 -12757 0
12761 12564 12757 0
-12762 -12760 0
-12762 -12761 0
12762 12760 12761 0
-12949 12139 0
-12949 -12762 0
12949 -12139 12762 0
-12950 -12139 0
-12950 12762 0
12950 12139 -12762 0
-12951 -12949 0
-12951 -12950 0
12951 12949 12950 0
12138 -17328 0
-12138 17328 0
-12758 -12557 0
-12758 -12754 0
12758 12557 12754 0
-12759 -12757 0
-12759 -12758 0
12759 12757 12758 0
-12946 12138 0
-12946 -12759 0
12946 -12138 12759 0
-12947 -12138 0
-12947 12759 0
12947 12138 -12759 0
-12948 -12946 0
-12948 -12947 0
12948 12946 12947 0
12137 -17327 0
-12137 17327 0
-12755 -12550 0
-12755 -12751 0
12755 12550 12751 0
-12756 -12754 0
-12756 -12755 0
12756 12754 12755 0
-12943 12137 0
-12943 -12756 0
12943 -12137 12756 0
-12944 -12137 0
-12944 12756 0
12944 12137 -12756 0
-12945 -12943 0
-12945 -12944 0
12945 12943 12944 0
12136 -17326 0
-12136 17326 0
-12752 -12543 0
-12752 -12748 0
12752 12543 12748 0
-12753 -12751 0
-12753 -12752 0
12753 12751 12752 0
-12940 12136 0
-12940 -12753 0
12940 -12136 12753 0
-12941 -12136 0
-12941 12753 0
12941 12136 -12753 0
-12942 -12940 0
-12942 -12941 0
12942 12940 12941 0
12135 -17325 0
-12135 17325 0
-12749 -12536 0
-12749 -12745 0
12749 12536 12745 0
-12750 -12748 0
-12750 -12749 0
12750 12748 12749 0
-12937 12135 0
-12937 -12750 0
12937 -12135 12750 0
-12938 -12135 0
-12938 12750 0
12938 12135 -12750 0
-12939 -12937 0
-12939 -12938 0
12939 12937 12938 0
12134 -17324 0
-12134 17324 0
-12746 -12529 0
-12746 -12742 0
12746 12529 12742 0
-12747 -12745 0
-12747 -12746 0
12747 12745 12746 0
-12934 12134 0
-12934 -12747 0
12934 -12134 12747 0
-12935 -12134 0
-12935 12747 0
12935 12134 -12747 0
-12936 -12934 0
-12936 -12935 0
12936 12934 12935 0
12133 -17323 0
-12133 17323 0
-12743 -12522 0
-12743 -12739 0
12743 12522 12739 0
-12744 -12742 0
-12744 -12743 0
12744 12742 12743 0
-12931 12133 0
-12931 -12744 0
12931 -12133 12744 0
-12932 -12133 0
-12932 12744 0
12932 12133 -12744 0
-12933 -12931 0
-12933 -12932 0
12933 12931 12932 0
12132 -17322 0
-12132 17322 0
-12740 -12515 0
-12740 -12736 0
12740 12515 12736 0
-12741 -12739 0
-12741 -12740 0
12741 12739 12740 0
-12928 12132 0
-12928 -12741 0
12928 -12132 12741 0
-12929 -12132 0
-12929 12741 0
12929 12132 -12741 0
-12930 -12928 0
-12930 -12929 0
12930 12928 12929 0
12131 -17321 0
-12131 17321 0
-12737 -12508 0
-12737 -12733 0
12737 12508 12733 0
-12738 -12736 0
-12738 -12737 0
12738 12736 12737 0
-12925 12131 0
-12925 -12738 0
12925 -12131 12738 0
-12926 -12131 0
-12926 12738 0
12926 12131 -12738 0
-12927 -12925 0
-12927 -12926 0
12927 12925 12926 0
12130 -17320 0
-12130 17320 0
-12734 -12501 0
-12734 -12730 0
12734 12501 12730 0
-12735 -12733 0
-12735 -12734 0
12735 12733 12734 0
-12922 12130 0
-12922 -12735 0
12922 -12130 12735 0
-12923 -12130 0
-12923 12735 0
12923 12130 -12735 0
-12924 -12922 0
-12924 -12923 0
12924 12922 12923 0
12129 -17319 0
-12129 17319 0
-12731 -12494 0
-12731 -12727 0
12731 12494 12727 0
-12732 -12730 0
-12732 -12731 0
12732 12730 12731 0
-12919 12129 0
-12919 -12732 0
12919 -12129 12732 0
-12920 -12129 0
-12920 12732 0
12920 12129 -12732 0
-12921 -12919 0
-12921 -12920 0
12921 12919 12920 0
12128 -17318 0
-12128 17318 0
-12728 -12487 0
-12728 -12724 0
12728 12487 12724 0
-12729 -12727 0
-12729 -12728 0
12729 12727 12728 0
-12916 12128 0
-12916 -12729 0
12916 -12128 12729 0
-12917 -12128 0
-12917 12729 0
12917 12128 -12729 0
-12918 -12916 0
-12918 -12917 0
12918 12916 12917 0
12127 -17317 0
-12127 17317 0
-12725 -12480 0
-12725 -12721 0
12725 12480 12721 0
-12726 -12724 0
-12726 -12725 0
12726 12724 12725 0
-12913 12127 0
-12913 -12726 0
12913 -12127 12726 0
-12914 -12127 0
-12914 12726 0
12914 12127 -12726 0
-12915 -12913 0
-12915 -12914 0
12915 12913 12914 0
12126 -17316 0
-12126 17316 0
-12722 -12473 0
-12722 -12718 0
12722 12473 12718 0
-12723 -12721 0
-12723 -12722 0
12723 12721 12722 0
-12910 12126 0
-12910 -12723 0
12910 -12126 12723 0
-12911 -12126 0
-12911 12723 0
12911 12126 -12723 0
-12912 -12910 0
-12912 -12911 0
12912 12910 12911 0
12125 -17315 0
-12125 17315 0
-12719 -12466 0
-12719 -12715 0
12719 12466 12715 0
-12720 -12718 0
-12720 -12719 0
12720 12718 12719 0
-12907 12125 0
-12907 -12720 0
12907 -12125 12720 0
-12908 -12125 0
-12908 12720 0
12908 12125 -12720 0
-12909 -12907 0
-12909 -12908 0
12909 12907 12908 0
12124 -17314 0
-12124 17314 0
-12716 -12459 0
-12716 -12712 0
12716 12459 12712 0
-12717 -12715 0
-12717 -12716 0
12717 12715 12716 0
-12904 12124 0
-12904 -12717 0
12904 -12124 12717 0
-12905 -12124 0
-12905 12717 0
12905 12124 -12717 0
-12906 -12904 0
-12906 -12905 0
12906 12904 12905 0
12123 -17313 0
-12123 17313 0
-12713 -12452 0
-12713 -12709 0
12713 12452 12709 0
-12714 -12712 0
-12714 -12713 0
12714 12712 12713 0
-12901 12123 0
-12901 -12714 0
12901 -12123 12714 0
-12902 -12123 0
-12902 12714 0
12902 12123 -12714 0
-12903 -12901 0
-12903 -12902 0
12903 12901 12902 0
12122 -17312 0
-12122 17312 0
-12710 -12445 0
-12710 -12706 0
12710 12445 12706 0
-12711 -12709 0
-12711 -12710 0
12711 12709 12710 0
-12898 12122 0
-12898 -12711 0
12898 -12122 12711 0
-12899 -12122 0
-12899 12711 0
12899 12122 -12711 0
-12900 -12898 0
-12900 -12899 0
12900 12898 12899 0
12121 -17311 0
-12121 17311 0
-12707 -12438 0
-12707 -12703 0
12707 12438 12703 0
-12708 -12706 0
-12708 -12707 0
12708 12706 12707 0
-12895 12121 0
-12895 -12708 0
12895 -12121 12708 0
-12896 -12121 0
-12896 12708 0
12896 12121 -12708 0
-12897 -12895 0
-12897 -12896 0
12897 12895 12896 0
12120 -17310 0
-12120 17310 0
-12704 -12431 0
-12704 -12700 0
12704 12431 12700 0
-12705 -12703 0
-12705 -12704 0
12705 12703 12704 0
-12892 12120 0
-12892 -12705 0
12892 -12120 12705 0
-12893 -12120 0
-12893 12705 0
12893 12120 -12705 0
-12894 -12892 0
-12894 -12893 0
12894 12892 12893 0
12119 -17309 0
-12119 17309 0
-12701 -12424 0
-12701 -12697 0
12701 12424 12697 0
-12702 -12700 0
-12702 -12701 0
12702 12700 12701 0
-12889 12119 0
-12889 -12702 0
12889 -12119 12702 0
-12890 -12119 0
-12890 12702 0
12890 12119 -12702 0
-12891 -12889 0
-12891 -12890 0
12891 12889 12890 0
12118 -17308 0
-12118 17308 0
-12698 -12417 0
-12698 -12694 0
12698 12417 12694 0
-12699 -12697 0
-12699 -12698 0
12699 12697 12698 0
-12886 12118 0
-12886 -12699 0
12886 -12118 12699 0
-12887 -12118 0
-12887 12699 0
12887 12118 -12699 0
-12888 -12886 0
-12888 -12887 0
12888 12886 12887 0
12117 -17307 0
-12117 17307 0
-12695 -12410 0
-12695 -12691 0
12695 12410 12691 0
-12696 -12694 0
-12696 -12695 0
12696 12694 12695 0
-12883 12117 0
-12883 -12696 0
12883 -12117 12696 0
-12884 -12117 0
-12884 12696 0
12884 12117 -12696 0
-12885 -12883 0
-12885 -12884 0
12885 12883 12884 0
12116 -17306 0
-12116 17306 0
-12692 -12403 0
-12692 -12688 0
12692 12403 12688 0
-12693 -12691 0
-12693 -12692 0
12693 12691 12692 0
-12880 12116 0
-12880 -12693 0
12880 -12116 12693 0
-12881 -12116 0
-12881 12693 0
12881 12116 -12693 0
-12882 -12880 0
-12882 -12881 0
12882 12880 12881 0
12115 -17305 0
-12115 17305 0
-12689 -12396 0
-12689 -12685 0
12689 12396 12685 0
-12690 -12688 0
-12690 -12689 0
12690 12688 12689 0
-12877 12115 0
-12877 -12690 0
12877 -12115 12690 0
-12878 -12115 0
-12878 12690 0
12878 12115 -12690 0
-12879 -12877 0
-12879 -12878 0
12879 12877 12878 0
12114 -17304 0
-12114 17304 0
-12686 -12389 0
-12686 -12682 0
12686 12389 12682 0
-12687 -12685 0
-12687 -12686 0
12687 12685 12686 0
-12874 12114 0
-12874 -12687 0
12874 -12114 12687 0
-12875 -12114 0
-12875 12687 0
12875 12114 -12687 0
-12876 -12874 0
-12876 -12875 0
12876 12874 12875 0
12113 -17303 0
-12113 17303 0
-12683 -12382 0
-12683 -12679 0
12683 12382 12679 0
-12684 -12682 0
-12684 -12683 0
12684 12682 12683 0
-12871 12113 0
-12871 -12684 0
12871 -12113 12684 0
-12872 -12113 0
-12872 12684 0
12872 12113 -12684 0
-12873 -12871 0
-12873 -12872 0
12873 12871 12872 0
12112 -17302 0
-12112 17302 0
-12680 -12375 0
-12680 -12676 0
12680 12375 12676 0
-12681 -12679 0
-12681 -12680 0
12681 12679 12680 0
-12868 12112 0
-12868 -12681 0
12868 -12112 12681 0
-12869 -12112 0
-12869 12681 0
12869 12112 -12681 0
-12870 -12868 0
-12870 -12869 0
12870 12868 12869 0
12111 -17301 0
-12111 17301 0
-12677 -12368 0
-12677 -12673 0
12677 12368 12673 0
-12678 -12676 0
-12678 -12677 0
12678 12676 12677 0
-12865 12111 0
-12865 -12678 0
12865 -12111 12678 0
-12866 -12111 0
-12866 12678 0
12866 12111 -12678 0
-12867 -12865 0
-12867 -12866 0
12867 12865 12866 0
12110 -17300 0
-12110 17300 0
-12674 -12361 0
-12674 -12670 0
12674 12361 12670 0
-12675 -12673 0
-12675 -12674 0
12675 12673 12674 0
-12862 12110 0
-12862 -12675 0
12862 -12110 12675 0
-12863 -12110 0
-12863 12675 0
12863 12110 -12675 0
-12864 -12862 0
-12864 -12863 0
12864 12862 12863 0
12109 -17299 0
-12109 17299 0
-12671 -12354 0
-12671 -12667 0
12671 12354 12667 0
-12672 -12670 0
-12672 -12671 0
12672 12670 12671 0
-12859 12109 0
-12859 -12672 0
12859 -12109 12672 0
-12860 -12109 0
-12860 12672 0
12860 12109 -12672 0
-12861 -12859 0
-12861 -12860 0
12861 12859 12860 0
12108 -17298 0
-12108 17298 0
-12668 -12347 0
-12668 -12664 0
12668 12347 12664 0
-12669 -12667 0
-12669 -12668 0
12669 12667 12668 0
-12856 12108 0
-12856 -12669 0
12856 -12108 12669 0
-12857 -12108 0
-12857 12669 0
12857 12108 -12669 0
-12858 -12856 0
-12858 -12857 0
12858 12856 12857 0
12107 -17297 0
-12107 17297 0
-12665 -12340 0
-12665 -12661 0
12665 12340 12661 0
-12666 -12664 0
-12666 -12665 0
12666 12664 12665 0
-12853 12107 0
-12853 -12666 0
12853 -12107 12666 0
-12854 -12107 0
-12854 12666 0
12854 12107 -12666 0
-12855 -12853 0
-12855 -12854 0
12855 12853 12854 0
12106 -17296 0
-12106 17296 0
-12662 -12333 0
-12662 -12658 0
12662 12333 12658 0
-12663 -12661 0
-12663 -12662 0
12663 12661 12662 0
-12850 12106 0
-12850 -12663 0
12850 -12106 12663 0
-12851 -12106 0
-12851 12663 0
12851 12106 -12663 0
-12852 -12850 0
-12852 -12851 0
12852 12850 12851 0
12105 -17295 0
-12105 17295 0
-12659 -12326 0
-12659 -12655 0
12659 12326 12655 0
-12660 -12658 0
-12660 -12659 0
12660 12658 12659 0
-12847 12105 0
-12847 -12660 0
12847 -12105 12660 0
-12848 -12105 0
-12848 12660 0
12848 12105 -12660 0
-12849 -12847 0
-12849 -12848 0
12849 12847 12848 0
12104 -17294 0
-12104 17294 0
-12656 -12319 0
-12656 -12652 0
12656 12319 12652 0
-12657 -12655 0
-12657 -12656 0
12657 12655 12656 0
-12844 12104 0
-12844 -12657 0
12844 -12104 12657 0
-12845 -12104 0
-12845 12657 0
12845 12104 -12657 0
-12846 -12844 0
-12846 -12845 0
12846 12844 12845 0
12103 -17293 0
-12103 17293 0
-12653 -12312 0
-12653 -12649 0
12653 12312 12649 0
-12654 -12652 0
-12654 -12653 0
12654 12652 12653 0
-12841 12103 0
-12841 -12654 0
12841 -12103 12654 0
-12842 -12103 0
-12842 12654 0
12842 12103 -12654 0
-12843 -12841 0
-12843 -12842 0
12843 12841 12842 0
12102 -17292 0
-12102 17292 0
-12650 -12305 0
-12650 -12646 0
12650 12305 12646 0
-12651 -12649 0
-12651 -12650 0
12651 12649 12650 0
-12838 12102 0
-12838 -12651 0
12838 -12102 12651 0
-12839 -12102 0
-12839 12651 0
12839 12102 -12651 0
-12840 -12838 0
-12840 -12839 0
12840 12838 12839 0
12101 -17291 0
-12101 17291 0
-12647 -12298 0
-12647 -12643 0
12647 12298 12643 0
-12648 -12646 0
-12648 -12647 0
12648 12646 12647 0
-12835 12101 0
-12835 -12648 0
12835 -12101 12648 0
-12836 -12101 0
-12836 12648 0
12836 12101 -12648 0
-12837 -12835 0
-12837 -12836 0
12837 12835 12836 0
12100 -17290 0
-12100 17290 0
-12644 -12291 0
-12644 -12640 0
12644 12291 12640 0
-12645 -12643 0
-12645 -12644 0
12645 12643 12644 0
-12832 12100 0
-12832 -12645 0
12832 -12100 12645 0
-12833 -12100 0
-12833 12645 0
12833 12100 -12645 0
-12834 -12832 0
-12834 -12833 0
12834 12832 12833 0
12099 -17289 0
-12099 17289 0
-12641 -12284 0
-12641 -12637 0
12641 12284 12637 0
-12642 -12640 0
-12642 -12641 0
12642 12640 12641 0
-12829 12099 0
-12829 -12642 0
12829 -12099 12642 0
-12830 -12099 0
-12830 12642 0
12830 12099 -12642 0
-12831 -12829 0
-12831 -12830 0
12831 12829 12830 0
12098 -17288 0
-12098 17288 0
-12638 -12277 0
-12638 -12634 0
12638 12277 12634 0
-12639 -12637 0
-12639 -12638 0
12639 12637 12638 0
-12826 12098 0
-12826 -12639 0
12826 -12098 12639 0
-12827 -12098 0
-12827 12639 0
12827 12098 -12639 0
-12828 -12826 0
-12828 -12827 0
12828 12826 12827 0
12097 -17287 0
-12097 17287 0
-12635 -12270 0
-12635 -12631 0
12635 12270 12631 0
-12636 -12634 0
-12636 -12635 0
12636 12634 12635 0
-12823 12097 0
-12823 -12636 0
12823 -12097 12636 0
-12824 -12097 0
-12824 12636 0
12824 12097 -12636 0
-12825 -12823 0
-12825 -12824 0
12825 12823 12824 0
12096 -17286 0
-12096 17286 0
-12632 -12263 0
-12632 -12628 0
12632 12263 12628 0
-12633 -12631 0
-12633 -12632 0
12633 12631 12632 0
-12820 12096 0
-12820 -12633 0
12820 -12096 12633 0
-12821 -12096 0
-12821 12633 0
12821 12096 -12633 0
-12822 -12820 0
-12822 -12821 0
12822 12820 12821 0
12095 -17285 0
-12095 17285 0
-12629 -12256 0
-12629 -12625 0
12629 12256 12625 0
-12630 -12628 0
-12630 -12629 0
12630 12628 12629 0
-12817 12095 0
-12817 -12630 0
12817 -12095 12630 0
-12818 -12095 0
-12818 12630 0
12818 12095 -12630 0
-12819 -12817 0
-12819 -12818 0
12819 12817 12818 0
12094 -17284 0
-12094 17284 0
-12626 -12249 0
-12626 -12622 0
12626 12249 12622 0
-12627 -12625 0
-12627 -12626 0
12627 12625 12626 0
-12814 12094 0
-12814 -12627 0
12814 -12094 12627 0
-12815 -12094 0
-12815 12627 0
12815 12094 -12627 0
-12816 -12814 0
-12816 -12815 0
12816 12814 12815 0
12093 -17283 0
-12093 17283 0
-12623 -12242 0
-12623 -12619 0
12623 12242 12619 0
-12624 -12622 0
-12624 -12623 0
12624 12622 12623 0
-12811 12093 0
-12811 -12624 0
12811 -12093 12624 0
-12812 -12093 0
-12812 12624 0
12812 12093 -12624 0
-12813 -12811 0
-12813 -12812 0
12813 12811 12812 0
12092 -17282 0
-12092 17282 0
-12620 -12235 0
-12620 -12616 0
12620 12235 12616 0
-12621 -12619 0
-12621 -12620 0
12621 12619 12620 0
-12808 12092 0
-12808 -12621 0
12808 -12092 12621 0
-12809 -12092 0
-12809 12621 0
12809 12092 -12621 0
-12810 -12808 0
-12810 -12809 0
12810 12808 12809 0
12091 -17281 0
-12091 17281 0
-12617 -12228 0
-12617 -12613 0
12617 12228 12613 0
-12618 -12616 0
-12618 -12617 0
12618 12616 12617 0
-12805 12091 0
-12805 -12618 0
12805 -12091 12618 0
-12806 -12091 0
-12806 12618 0
12806 12091 -12618 0
-12807 -12805 0
-12807 -12806 0
12807 12805 12806 0
12090 -17280 0
-12090 17280 0
-12614 -12221 0
-12614 -12610 0
12614 12221 12610 0
-12615 -12613 0
-12615 -12614 0
12615 12613 12614 0
-12802 12090 0
-12802 -12615 0
12802 -12090 12615 0
-12803 -12090 0
-12803 12615 0
12803 12090 -12615 0
-12804 -12802 0
-12804 -12803 0
12804 12802 12803 0
12089 -17279 0
-12089 17279 0
-12611 -12214 0
-12611 -12607 0
12611 12214 12607 0
-12612 -12610 0
-12612 -12611 0
12612 12610 12611 0
-12799 12089 0
-12799 -12612 0
12799 -12089 12612 0
-12800 -12089 0
-12800 12612 0
12800 12089 -12612 0
-12801 -12799 0
-12801 -12800 0
12801 12799 12800 0
12088 -17278 0
-12088 17278 0
-12608 -12207 0
-12608 -12604 0
12608 12207 12604 0
-12609 -12607 0
-12609 -12608 0
12609 12607 12608 0
-12796 12088 0
-12796 -12609 0
12796 -12088 12609 0
-12797 -12088 0
-12797 12609 0
12797 12088 -12609 0
-12798 -12796 0
-12798 -12797 0
12798 12796 12797 0
12087 -17277 0
-12087 17277 0
-12605 -12200 0
-12605 -12601 0
12605 12200 12601 0
-12606 -12604 0
-12606 -12605 0
12606 12604 12605 0
-12793 12087 0
-12793 -12606 0
12793 -12087 12606 0
-12794 -12087 0
-12794 12606 0
12794 12087 -12606 0
-12795 -12793 0
-12795 -12794 0
12795 12793 12794 0
12086 -17276 0
-12086 17276 0
-12602 -12193 0
-12602 -12598 0
12602 12193 12598 0
-12603 -12601 0
-12603 -12602 0
12603 12601 12602 0
-12790 12086 0
-12790 -12603 0
12790 -12086 12603 0
-12791 -12086 0
-12791 12603 0
12791 12086 -12603 0
-12792 -12790 0
-12792 -12791 0
12792 12790 12791 0
12085 -17275 0
-12085 17275 0
-12599 -12186 0
-12599 -12595 0
12599 12186 12595 0
-12600 -12598 0
-12600 -12599 0
12600 12598 12599 0
-12787 12085 0
-12787 -12600 0
12787 -12085 12600 0
-12788 -12085 0
-12788 12600 0
12788 12085 -12600 0
-12789 -12787 0
-12789 -12788 0
12789 12787 12788 0
12084 -17274 0
-12084 17274 0
-12596 -12179 0
-12596 -12592 0
12596 12179 12592 0
-12597 -12595 0
-12597 -12596 0
12597 12595 12596 0
-12784 12084 0
-12784 -12597 0
12784 -12084 12597 0
-12785 -12084 0
-12785 12597 0
12785 12084 -12597 0
-12786 -12784 0
-12786 -12785 0
12786 12784 12785 0
12083 -17273 0
-12083 17273 0
-12593 -12172 0
-12593 -12589 0
12593 12172 12589 0
-12594 -12592 0
-12594 -12593 0
12594 12592 12593 0
-12781 12083 0
-12781 -12594 0
12781 -12083 12594 0
-12782 -12083 0
-12782 12594 0
12782 12083 -12594 0
-12783 -12781 0
-12783 -12782 0
12783 12781 12782 0
12082 -17272 0
-12082 17272 0
-12590 -12165 0
-12590 -12586 0
12590 12165 12586 0
-12591 -12589 0
-12591 -12590 0
12591 12589 12590 0
-12778 12082 0
-12778 -12591 0
12778 -12082 12591 0
-12779 -12082 0
-12779 12591 0
12779 12082 -12591 0
-12780 -12778 0
-12780 -12779 0
12780 12778 12779 0
12081 -17271 0
-12081 17271 0
-12587 -12158 0
-12587 -12583 0
12587 12158 12583 0
-12588 -12586 0
-12588 -12587 0
12588 12586 12587 0
-12775 12081 0
-12775 -12588 0
12775 -12081 12588 0
-12776 -12081 0
-12776 12588 0
12776 12081 -12588 0
-12777 -12775 0
-12777 -12776 0
12777 12775 12776 0
12079 -17269 0
-12079 17269 0
-12581 -10264 0
-12581 -12145 0
12581 10264 12145 0
-12582 -12580 0
-12582 -12581 0
12582 12580 12581 0
-12769 12079 0
-12769 -12582 0
12769 -12079 12582 0
-12770 -12079 0
-12770 12582 0
12770 12079 -12582 0
-12771 -12769 0
-12771 -12770 0
12771 12769 12770 0
12080 -17270 0
-12080 17270 0
-12584 -12151 0
-12584 -12580 0
12584 12151 12580 0
-12585 -12583 0
-12585 -12584 0
12585 12583 12584 0
-12772 12080 0
-12772 -12585 0
12772 -12080 12585 0
-12773 -12080 0
-12773 12585 0
12773 12080 -12585 0
-12774 -12772 0
-12774 -12773 0
12774 12772 12773 0
-12958 12771 0
-12958 12774 0
12958 -12771 -12774 0
-12959 12777 0
-12959 12958 0
12959 -12777 -12958 0
-12960 12780 0
-12960 12959 0
12960 -12780 -12959 0
-12961 12783 0
-12961 12960 0
12961 -12783 -12960 0
-12962 12786 0
-12962 12961 0
12962 -12786 -12961 0
-12963 12789 0
-12963 12962 0
12963 -12789 -12962 0
-12964 12792 0
-12964 12963 0
12964 -12792 -12963 0
-12965 12795 0
-12965 12964 0
12965 -12795 -12964 0
-12966 12798 0
-12966 12965 0
12966 -12798 -12965 0
-12967 12801 0
-12967 12966 0
12967 -12801 -12966 0
-12968 12804 0
-12968 12967 0
12968 -12804 -12967 0
-12969 12807 0
-12969 12968 0
12969 -12807 -12968 0
-12970 12810 0
-12970 12969 0
12970 -12810 -12969 0
-12971 12813 0
-12971 12970 0
12971 -12813 -12970 0
-12972 12816 0
-12972 12971 0
12972 -12816 -12971 0
-12973 12819 0
-12973 12972 0
12973 -12819 -12972 0
-12974 12822 0
-12974 12973 0
12974 -12822 -12973 0
-12975 12825 0
-12975 12974 0
12975 -12825 -12974 0
-12976 12828 0
-12976 12975 0
12976 -12828 -12975 0
-12977 12831 0
-12977 12976 0
12977 -12831 -12976 0
-12978 12834 0
-12978 12977 0
12978 -12834 -12977 0
-12979 12837 0
-12979 12978 0
12979 -12837 -12978 0
-12980 12840 0
-12980 12979 0
12980 -12840 -12979 0
-12981 12843 0
-12981 12980 0
12981 -12843 -12980 0
-12982 12846 0
-12982 12981 0
12982 -12846 -12981 0
-12983 12849 0
-12983 12982 0
12983 -12849 -12982 0
-12984 12852 0
-12984 12983 0
12984 -12852 -12983 0
-12985 12855 0
-12985 12984 0
12985 -12855 -12984 0
-12986 12858 0
-12986 12985 0
12986 -12858 -12985 0
-12987 12861 0
-12987 12986 0
12987 -12861 -12986 0
-12988 12864 0
-12988 12987 0
12988 -12864 -12987 0
-12989 12867 0
-12989 12988 0
12989 -12867 -12988 0
-12990 12870 0
-12990 12989 0
12990 -12870 -12989 0
-12991 12873 0
-12991 12990 0
12991 -12873 -12990 0
-12992 12876 0
-12992 12991 0
12992 -12876 -12991 0
-12993 12879 0
-12993 12992 0
12993 -12879 -12992 0
-12994 12882 0
-12994 12993 0
12994 -12882 -12993 0
-12995 12885 0
-12995 12994 0
12995 -12885 -12994 0
-12996 12888 0
-12996 12995 0
12996 -12888 -12995 0
-12997 12891 0
-12997 12996 0
12997 -12891 -12996 0
-12998 12894 0
-12998 12997 0
12998 -12894 -12997 0
-12999 12897 0
-12999 12998 0
12999 -12897 -12998 0
-13000 12900 0
-13000 12999 0
13000 -12900 -12999 0
-13001 12903 0
-13001 13000 0
13001 -12903 -13000 0
-13002 12906 0
-13002 13001 0
13002 -12906 -13001 0
-13003 12909 0
-13003 13002 0
13003 -12909 -13002 0
-13004 12912 0
-13004 13003 0
13004 -12912 -13003 0
-13005 12915 0
-13005 13004 0
13005 -12915 -13004 0
-13006 12918 0
-13006 13005 0
13006 -12918 -13005 0
-13007 12921 0
-13007 13006 0
13007 -12921 -13006 0
-13008 12924 0
-13008 13007 0
13008 -12924 -13007 0
-13009 12927 0
-13009 13008 0
13009 -12927 -13008 0
-13010 12930 0
-13010 13009 0
13010 -12930 -13009 0
-13011 12933 0
-13011 13010 0
13011 -12933 -13010 0
-13012 12936 0
-13012 13011 0
13012 -12936 -13011 0
-13013 12939 0
-13013 13012 0
13013 -12939 -13012 0
-13014 12942 0
-13014 13013 0
13014 -12942 -13013 0
-13015 12945 0
-13015 13014 0
13015 -12945 -13014 0
-13016 12948 0
-13016 13015 0
13016 -12948 -13015 0
-13017 12951 0
-13017 13016 0
13017 -12951 -13016 0
-13018 12954 0
-13018 13017 0
13018 -12954 -13017 0
-13019 12957 0
-13019 13018 0
13019 -12957 -13018 0
-13020 -12142 0
-13020 13019 0
13020 12142 -13019 0
-13021 11473 0
-13021 -13020 0
13021 -11473 13020 0
-13022 12078 0
-13022 -13021 0
13022 -12078 13021 0
-13209 -11578 0
-13209 12141 0
13209 11578 -12141 0
-13210 11578 0
-13210 -12141 0
13210 -11578 12141 0
-13211 -13209 0
-13211 -13210 0
13211 13209 13210 0
-13206 -11577 0
-13206 12140 0
13206 11577 -12140 0
-13207 11577 0
-13207 -12140 0
13207 -11577 12140 0
-13208 -13206 0
-13208 -13207 0
13208 13206 13207 0
-13203 -11576 0
-13203 12139 0
13203 11576 -12139 0
-13204 11576 0
-13204 -12139 0
13204 -11576 12139 0
-13205 -13203 0
-13205 -13204 0
13205 13203 13204 0
-13200 -11575 0
-13200 12138 0
13200 11575 -12138 0
-13201 11575 0
-13201 -12138 0
13201 -11575 12138 0
-13202 -13200 0
-13202 -13201 0
13202 13200 13201 0
-13197 -11574 0
-13197 12137 0
13197 11574 -12137 0
-13198 11574 0
-13198 -12137 0
13198 -11574 12137 0
-13199 -13197 0
-13199 -13198 0
13199 13197 13198 0
-13194 -11573 0
-13194 12136 0
13194 11573 -12136 0
-13195 11573 0
-13195 -12136 0
13195 -11573 12136 0
-13196 -13194 0
-13196 -13195 0
13196 13194 13195 0
-13191 -11572 0
-13191 12135 0
13191 11572 -12135 0
-13192 11572 0
-13192 -12135 0
13192 -11572 12135 0
-13193 -13191 0
-13193 -13192 0
13193 13191 13192 0
-13188 -11571 0
-13188 12134 0
13188 11571 -12134 0
-13189 11571 0
-13189 -12134 0
13189 -11571 12134 0
-13190 -13188 0
-13190 -13189 0
13190 13188 13189 0
-13185 -11570 0
-13185 12133 0
13185 11570 -12133 0
-13186 11570 0
-13186 -12133 0
13186 -11570 12133 0
-13187 -13185 0
-13187 -13186 0
13187 13185 13186 0
-13182 -11569 0
-13182 12132 0
13182 11569 -12132 0
-13183 11569 0
-13183 -12132 0
13183 -11569 12132 0
-13184 -13182 0
-13184 -13183 0
13184 13182 13183 0
-13179 -11568 0
-13179 12131 0
13179 11568 -12131 0
-13180 11568 0
-13180 -12131 0
13180 -11568 12131 0
-13181 -13179 0
-13181 -13180 0
13181 13179 13180 0
-13176 -11567 0
-13176 12130 0
13176 11567 -12130 0
-13177 11567 0
-13177 -12130 0
13177 -11567 12130 0
-13178 -13176 0
-13178 -13177 0
13178 13176 13177 0
-13173 -11566 0
-13173 12129 0
13173 11566 -12129 0
-13174 11566 0
-13174 -12129 0
13174 -11566 12129 0
-13175 -13173 0
-13175 -13174 0
13175 13173 13174 0
-13170 -11565 0
-13170 12128 0
13170 11565 -12128 0
-13171 11565 0
-13171 -12128 0
13171 -11565 12128 0
-13172 -13170 0
-13172 -13171 0
13172 13170 13171 0
-13167 -11564 0
-13167 12127 0
13167 11564 -12127 0
-13168 11564 0
-13168 -12127 0
13168 -11564 12127 0
-13169 -13167 0
-13169 -13168 0
13169 13167 13168 0
-13164 -11563 0
-13164 12126 0
13164 11563 -12126 0
-13165 11563 0
-13165 -12126 0
13165 -11563 12126 0
-13166 -13164 0
-13166 -13165 0
13166 13164 13165 0
-13161 -11562 0
-13161 12125 0
13161 11562 -12125 0
-13162 11562 0
-13162 -12125 0
13162 -11562 12125 0
-13163 -13161 0
-13163 -13162 0
13163 13161 13162 0
-13158 -11561 0
-13158 12124 0
13158 11561 -12124 0
-13159 11561 0
-13159 -12124 0
13159 -11561 12124 0
-13160 -13158 0
-13160 -13159 0
13160 13158 13159 0
-13155 -11560 0
-13155 12123 0
13155 11560 -12123 0
-13156 11560 0
-13156 -12123 0
13156 -11560 12123 0
-13157 -13155 0
-13157 -13156 0
13157 13155 13156 0
-13152 -11559 0
-13152 12122 0
13152 11559 -12122 0
-13153 11559 0
-13153 -12122 0
13153 -11559 12122 0
-13154 -13152 0
-13154 -13153 0
13154 13152 13153 0
-13149 -11558 0
-13149 12121 0
13149 11558 -12121 0
-13150 11558 0
-13150 -12121 0
13150 -11558 12121 0
-13151 -13149 0
-13151 -13150 0
13151 13149 13150 0
-13146 -11557 0
-13146 12120 0
13146 11557 -12120 0
-13147 11557 0
-13147 -12120 0
13147 -11557 12120 0
-13148 -13146 0
-13148 -13147 0
13148 13146 13147 0
-13143 -11556 0
-13143 12119 0
13143 11556 -12119 0
-13144 11556 0
-13144 -12119 0
13144 -11556 12119 0
-13145 -13143 0
-13145 -13144 0
13145 13143 13144 0
-13140 -11555 0
-13140 12118 0
13140 11555 -12118 0
-13141 11555 0
-13141 -12118 0
13141 -11555 12118 0
-13142 -13140 0
-13142 -13141 0
13142 13140 13141 0
-13137 -11554 0
-13137 12117 0
13137 11554 -12117 0
-13138 11554 0
-13138 -12117 0
13138 -11554 12117 0
-13139 -13137 0
-13139 -13138 0
13139 13137 13138 0
-13134 -11553 0
-13134 12116 0
13134 11553 -12116 0
-13135 11553 0
-13135 -12116 0
13135 -11553 12116 0
-13136 -13134 0
-13136 -13135 0
13136 13134 13135 0
-13131 -11552 0
-13131 12115 0
13131 11552 -12115 0
-13132 11552 0
-13132 -12115 0
13132 -11552 12115 0
-13133 -13131 0
-13133 -13132 0
13133 13131 13132 0
-13128 -11551 0
-13128 12114 0
13128 11551 -12114 0
-13129 11551 0
-13129 -12114 0
13129 -11551 12114 0
-13130 -13128 0
-13130 -13129 0
13130 13128 13129 0
-13125 -11550 0
-13125 12113 0
13125 11550 -12113 0
-13126 11550 0
-13126 -12113 0
13126 -11550 12113 0
-13127 -13125 0
-13127 -13126 0
13127 13125 13126 0
-13122 -11549 0
-13122 12112 0
13122 11549 -12112 0
-13123 11549 0
-13123 -12112 0
13123 -11549 12112 0
-13124 -13122 0
-13124 -13123 0
13124 13122 13123 0
-13119 -11548 0
-13119 12111 0
13119 11548 -12111 0
-13120 11548 0
-13120 -12111 0
13120 -11548 12111 0
-13121 -13119 0
-13121 -13120 0
13121 13119 13120 0
-13116 -11547 0
-13116 12110 0
13116 11547 -12110 0
-13117 11547 0
-13117 -12110 0
13117 -11547 12110 0
-13118 -13116 0
-13118 -13117 0
13118 13116 13117 0
-13113 -11546 0
-13113 12109 0
13113 11546 -12109 0
-13114 11546 0
-13114 -12109 0
13114 -11546 12109 0
-13115 -13113 0
-13115 -13114 0
13115 13113 13114 0
-13110 -11545 0
-13110 12108 0
13110 11545 -12108 0
-13111 11545 0
-13111 -12108 0
13111 -11545 12108 0
-13112 -13110 0
-13112 -13111 0
13112 13110 13111 0
-13107 -11544 0
-13107 12107 0
13107 11544 -12107 0
-13108 11544 0
-13108 -12107 0
13108 -11544 12107 0
-13109 -13107 0
-13109 -13108 0
13109 13107 13108 0
-13104 -11543 0
-13104 12106 0
13104 11543 -12106 0
-13105 11543 0
-13105 -12106 0
13105 -11543 12106 0
-13106 -13104 0
-13106 -13105 0
13106 13104 13105 0
-13101 -11542 0
-13101 12105 0
13101 11542 -12105 0
-13102 11542 0
-13102 -12105 0
13102 -11542 12105 0
-13103 -13101 0
-13103 -13102 0
13103 13101 13102 0
-13098 -11541 0
-13098 12104 0
13098 11541 -12104 0
-13099 11541 0
-13099 -12104 0
13099 -11541 12104 0
-13100 -13098 0
-13100 -13099 0
13100 13098 13099 0
-13095 -11540 0
-13095 12103 0
13095 11540 -12103 0
-13096 11540 0
-13096 -12103 0
13096 -11540 12103 0
-13097 -13095 0
-13097 -13096 0
13097 13095 13096 0
-13092 -11539 0
-13092 12102 0
13092 11539 -12102 0
-13093 11539 0
-13093 -12102 0
13093 -11539 12102 0
-13094 -13092 0
-13094 -13093 0
13094 13092 13093 0
-13089 -11538 0
-13089 12101 0
13089 11538 -12101 0
-13090 11538 0
-13090 -12101 0
13090 -11538 12101 0
-13091 -13089 0
-13091 -13090 0
13091 13089 13090 0
-13086 -11537 0
-13086 12100 0
13086 11537 -12100 0
-13087 11537 0
-13087 -12100 0
13087 -11537 12100 0
-13088 -13086 0
-13088 -13087 0
13088 13086 13087 0
-13083 -11536 0
-13083 12099 0
13083 11536 -12099 0
-13084 11536 0
-13084 -12099 0
13084 -11536 12099 0
-13085 -13083 0
-13085 -13084 0
13085 13083 13084 0
-13080 -11535 0
-13080 12098 0
13080 11535 -12098 0
-13081 11535 0
-13081 -12098 0
13081 -11535 12098 0
-13082 -13080 0
-13082 -13081 0
13082 13080 13081 0
-13077 -11534 0
-13077 12097 0
13077 11534 -12097 0
-13078 11534 0
-13078 -12097 0
13078 -11534 12097 0
-13079 -13077 0
-13079 -13078 0
13079 13077 13078 0
-13074 -11533 0
-13074 12096 0
13074 11533 -12096 0
-13075 11533 0
-13075 -12096 0
13075 -11533 12096 0
-13076 -13074 0
-13076 -13075 0
13076 13074 13075 0
-13071 -11532 0
-13071 12095 0
13071 11532 -12095 0
-13072 11532 0
-13072 -12095 0
13072 -11532 12095 0
-13073 -13071 0
-13073 -13072 0
13073 13071 13072 0
-13068 -11531 0
-13068 12094 0
13068 11531 -12094 0
-13069 11531 0
-13069 -12094 0
13069 -11531 12094 0
-13070 -13068 0
-13070 -13069 0
13070 13068 13069 0
-13065 -11530 0
-13065 12093 0
13065 11530 -12093 0
-13066 11530 0
-13066 -12093 0
13066 -11530 12093 0
-13067 -13065 0
-13067 -13066 0
13067 13065 13066 0
-13062 -11529 0
-13062 12092 0
13062 11529 -12092 0
-13063 11529 0
-13063 -12092 0
13063 -11529 12092 0
-13064 -13062 0
-13064 -13063 0
13064 13062 13063 0
-13059 -11528 0
-13059 12091 0
13059 11528 -12091 0
-13060 11528 0
-13060 -12091 0
13060 -11528 12091 0
-13061 -13059 0
-13061 -13060 0
13061 13059 13060 0
-13056 -11527 0
-13056 12090 0
13056 11527 -12090 0
-13057 11527 0
-13057 -12090 0
13057 -11527 12090 0
-13058 -13056 0
-13058 -13057 0
13058 13056 13057 0
-13053 -11526 0
-13053 12089 0
13053 11526 -12089 0
-13054 11526 0
-13054 -12089 0
13054 -11526 12089 0
-13055 -13053 0
-13055 -13054 0
13055 13053 13054 0
-13050 -11525 0
-13050 12088 0
13050 11525 -12088 0
-13051 11525 0
-13051 -12088 0
13051 -11525 12088 0
-13052 -13050 0
-13052 -13051 0
13052 13050 13051 0
-13047 -11524 0
-13047 12087 0
13047 11524 -12087 0
-13048 11524 0
-13048 -12087 0
13048 -11524 12087 0
-13049 -13047 0
-13049 -13048 0
13049 13047 13048 0
-13044 -11523 0
-13044 12086 0
13044 11523 -12086 0
-13045 11523 0
-13045 -12086 0
13045 -11523 12086 0
-13046 -13044 0
-13046 -13045 0
13046 13044 13045 0
-13041 -11522 0
-13041 12085 0
13041 11522 -12085 0
-13042 11522 0
-13042 -12085 0
13042 -11522 12085 0
-13043 -13041 0
-13043 -13042 0
13043 13041 13042 0
-13038 -11521 0
-13038 12084 0
13038 11521 -12084 0
-13039 11521 0
-13039 -12084 0
13039 -11521 12084 0
-13040 -13038 0
-13040 -13039 0
13040 13038 13039 0
-13035 -11520 0
-13035 12083 0
13035 11520 -12083 0
-13036 11520 0
-13036 -12083 0
13036 -11520 12083 0
-13037 -13035 0
-13037 -13036 0
13037 13035 13036 0
-13032 -11519 0
-13032 12082 0
13032 11519 -12082 0
-13033 11519 0
-13033 -12082 0
13033 -11519 12082 0
-13034 -13032 0
-13034 -13033 0
13034 13032 13033 0
-13029 -11518 0
-13029 12081 0
13029 11518 -12081 0
-13030 11518 0
-13030 -12081 0
13030 -11518 12081 0
-13031 -13029 0
-13031 -13030 0
13031 13029 13030 0
-13023 -11516 0
-13023 12079 0
13023 11516 -12079 0
-13024 11516 0
-13024 -12079 0
13024 -11516 12079 0
-13025 -13023 0
-13025 -13024 0
13025 13023 13024 0
-13026 -11517 0
-13026 12080 0
13026 11517 -12080 0
-13027 11517 0
-13027 -12080 0
13027 -11517 12080 0
-13028 -13026 0
-13028 -13027 0
13028 13026 13027 0
-13212 13025 0
-13212 13028 0
13212 -13025 -13028 0
-13213 13031 0
-13213 13212 0
13213 -13031 -13212 0
-13214 13034 0
-13214 13213 0
13214 -13034 -13213 0
-13215 13037 0
-13215 13214 0
13215 -13037 -13214 0
-13216 13040 0
-13216 13215 0
13216 -13040 -13215 0
-13217 13043 0
-13217 13216 0
13217 -13043 -13216 0
-13218 13046 0
-13218 13217 0
13218 -13046 -13217 0
-13219 13049 0
-13219 13218 0
13219 -13049 -13218 0
-13220 13052 0
-13220 13219 0
13220 -13052 -13219 0
-13221 13055 0
-13221 13220 0
13221 -13055 -13220 0
-13222 13058 0
-13222 13221 0
13222 -13058 -13221 0
-13223 13061 0
-13223 13222 0
13223 -13061 -13222 0
-13224 13064 0
-13224 13223 0
13224 -13064 -13223 0
-13225 13067 0
-13225 13224 0
13225 -13067 -13224 0
-13226 13070 0
-13226 13225 0
13226 -13070 -13225 0
-13227 13073 0
-13227 13226 0
13227 -13073 -13226 0
-13228 13076 0
-13228 13227 0
13228 -13076 -13227 0
-13229 13079 0
-13229 13228 0
13229 -13079 -13228 0
-13230 13082 0
-13230 13229 0
13230 -13082 -13229 0
-13231 13085 0
-13231 13230 0
13231 -13085 -13230 0
-13232 13088 0
-13232 13231 0
13232 -13088 -13231 0
-13233 13091 0
-13233 13232 0
13233 -13091 -13232 0
-13234 13094 0
-13234 13233 0
13234 -13094 -13233 0
-13235 13097 0
-13235 13234 0
13235 -13097 -13234 0
-13236 13100 0
-13236 13235 0
13236 -13100 -13235 0
-13237 13103 0
-13237 13236 0
13237 -13103 -13236 0
-13238 13106 0
-13238 13237 0
13238 -13106 -13237 0
-13239 13109 0
-13239 13238 0
13239 -13109 -13238 0
-13240 13112 0
-13240 13239 0
13240 -13112 -13239 0
-13241 13115 0
-13241 13240 0
13241 -13115 -13240 0
-13242 13118 0
-13242 13241 0
13242 -13118 -13241 0
-13243 13121 0
-13243 13242 0
13243 -13121 -13242 0
-13244 13124 0
-13244 13243 0
13244 -13124 -13243 0
-13245 13127 0
-13245 13244 0
13245 -13127 -13244 0
-13246 13130 0
-13246 13245 0
13246 -13130 -13245 0
-13247 13133 0
-13247 13246 0
13247 -13133 -13246 0
-13248 13136 0
-13248 13247 0
13248 -13136 -13247 0
-13249 13139 0
-13249 13248 0
13249 -13139 -13248 0
-13250 13142 0
-13250 13249 0
13250 -13142 -13249 0
-13251 13145 0
-13251 13250 0
13251 -13145 -13250 0
-13252 13148 0
-13252 13251 0
13252 -13148 -13251 0
-13253 13151 0
-13253 13252 0
13253 -13151 -13252 0
-13254 13154 0
-13254 13253 0
13254 -13154 -13253 0
-13255 13157 0
-13255 13254 0
13255 -13157 -13254 0
-13256 13160 0
-13256 13255 0
13256 -13160 -13255 0
-13257 13163 0
-13257 13256 0
13257 -13163 -13256 0
-13258 13166 0
-13258 13257 0
13258 -13166 -13257 0
-13259 13169 0
-13259 13258 0
13259 -13169 -13258 0
-13260 13172 0
-13260 13259 0
13260 -13172 -13259 0
-13261 13175 0
-13261 13260 0
13261 -13175 -13260 0
-13262 13178 0
-13262 13261 0
13262 -13178 -13261 0
-13263 13181 0
-13263 13262 0
13263 -13181 -13262 0
-13264 13184 0
-13264 13263 0
13264 -13184 -13263 0
-13265 13187 0
-13265 13264 0
13265 -13187 -13264 0
-13266 13190 0
-13266 13265 0
13266 -13190 -13265 0
-13267 13193 0
-13267 13266 0
13267 -13193 -13266 0
-13268 13196 0
-13268 13267 0
13268 -13196 -13267 0
-13269 13199 0
-13269 13268 0
13269 -13199 -13268 0
-13270 13202 0
-13270 13269 0
13270 -13202 -13269 0
-13271 13205 0
-13271 13270 0
13271 -13205 -13270 0
-13272 13208 0
-13272 13271 0
13272 -13208 -13271 0
-13273 13211 0
-13273 13272 0
13273 -13211 -13272 0
-13274 -12142 0
-13274 13273 0
13274 12142 -13273 0
-13275 -11473 0
-13275 -13274 0
13275 11473 13274 0
-13276 13022 0
-13276 -13275 0
13276 -13022 13275 0
-13463 -31 0
-13463 104 0
13463 31 -104 0
-13458 -30 0
-13458 103 0
13458 30 -103 0
-13453 -29 0
-13453 102 0
13453 29 -102 0
-13448 -28 0
-13448 101 0
13448 28 -101 0
-13443 -27 0
-13443 100 0
13443 27 -100 0
-13438 -26 0
-13438 99 0
13438 26 -99 0
-13433 -25 0
-13433 98 0
13433 25 -98 0
-13428 -24 0
-13428 97 0
13428 24 -97 0
-13423 -23 0
-13423 96 0
13423 23 -96 0
-13418 -22 0
-13418 95 0
13418 22 -95 0
-13413 -21 0
-13413 94 0
13413 21 -94 0
-13408 -20 0
-13408 93 0
13408 20 -93 0
-13403 -19 0
-13403 92 0
13403 19 -92 0
-13398 -18 0
-13398 91 0
13398 18 -91 0
-13393 -17 0
-13393 90 0
13393 17 -90 0
-13388 -16 0
-13388 89 0
13388 16 -89 0
-13383 -15 0
-13383 88 0
13383 15 -88 0
-13378 -14 0
-13378 87 0
13378 14 -87 0
-13373 -13 0
-13373 86 0
13373 13 -86 0
-13368 -12 0
-13368 85 0
13368 12 -85 0
-13363 -11 0
-13363 84 0
13363 11 -84 0
-13358 -10 0
-13358 83 0
13358 10 -83 0
-13353 -9 0
-13353 82 0
13353 9 -82 0
-13348 -8 0
-13348 81 0
13348 8 -81 0
-13343 -7 0
-13343 80 0
13343 7 -80 0
-13338 -6 0
-13338 79 0
13338 6 -79 0
-13333 -5 0
-13333 78 0
13333 5 -78 0
-13328 -4 0
-13328 77 0
13328 4 -77 0
-13323 -3 0
-13323 76 0
13323 3 -76 0
-13319 -2 0
-13319 75 0
13319 2 -75 0
-13320 2 0
-13320 -75 0
13320 -2 75 0
-13321 -13319 0
-13321 -13320 0
13321 13319 13320 0
-13322 -13319 0
-13322 -13321 0
13322 13319 13321 0
-13324 3 0
-13324 -76 0
13324 -3 76 0
-13325 -13323 0
-13325 -13324 0
13325 13323 13324 0
-13326 -13322 0
-13326 13325 0
13326 13322 -13325 0
-13327 -13323 0
-13327 -13326 0
13327 13323 13326 0
-13329 4 0
-13329 -77 0
13329 -4 77 0
-13330 -13328 0
-13330 -13329 0
13330 13328 13329 0
-13331 -13327 0
-13331 13330 0
13331 13327 -13330 0
-13332 -13328 0
-13332 -13331 0
13332 13328 13331 0
-13334 5 0
-13334 -78 0
13334 -5 78 0
-13335 -13333 0
-13335 -13334 0
13335 13333 13334 0
-13336 -13332 0
-13336 13335 0
13336 13332 -13335 0
-13337 -13333 0
-13337 -13336 0
13337 13333 13336 0
-13339 6 0
-13339 -79 0
13339 -6 79 0
-13340 -13338 0
-13340 -13339 0
13340 13338 13339 0
-13341 -13337 0
-13341 13340 0
13341 13337 -13340 0
-13342 -13338 0
-13342 -13341 0
13342 13338 13341 0
-13344 7 0
-13344 -80 0
13344 -7 80 0
-13345 -13343 0
-13345 -13344 0
13345 13343 13344 0
-13346 -13342 0
-13346 13345 0
13346 13342 -13345 0
-13347 -13343 0
-13347 -13346 0
13347 13343 13346 0
-13349 8 0
-13349 -81 0
13349 -8 81 0
-13350 -13348 0
-13350 -13349 0
13350 13348 13349 0
-13351 -13347 0
-13351 13350 0
13351 13347 -13350 0
-13352 -13348 0
-13352 -13351 0
13352 13348 13351 0
-13354 9 0
-13354 -82 0
13354 -9 82 0
-13355 -13353 0
-13355 -13354 0
13355 13353 13354 0
-13356 -13352 0
-13356 13355 0
13356 13352 -13355 0
-13357 -13353 0
-13357 -13356 0
13357 13353 13356 0
-13359 10 0
-13359 -83 0
13359 -10 83 0
-13360 -13358 0
-13360 -13359 0
13360 13358 13359 0
-13361 -13357 0
-13361 13360 0
13361 13357 -13360 0
-13362 -13358 0
-13362 -13361 0
13362 13358 13361 0
-13364 11 0
-13364 -84 0
13364 -11 84 0
-13365 -13363 0
-13365 -13364 0
13365 13363 13364 0
-13366 -13362 0
-13366 13365 0
13366 13362 -13365 0
-13367 -13363 0
-13367 -13366 0
13367 13363 13366 0
-13369 12 0
-13369 -85 0
13369 -12 85 0
-13370 -13368 0
-13370 -13369 0
13370 13368 13369 0
-13371 -13367 0
-13371 13370 0
13371 13367 -13370 0
-13372 -13368 0
-13372 -13371 0
13372 13368 13371 0
-13374 13 0
-13374 -86 0
13374 -13 86 0
-13375 -13373 0
-13375 -13374 0
13375 13373 13374 0
-13376 -13372 0
-13376 13375 0
13376 13372 -13375 0
-13377 -13373 0
-13377 -13376 0
13377 13373 13376 0
-13379 14 0
-13379 -87 0
13379 -14 87 0
-13380 -13378 0
-13380 -13379 0
13380 13378 13379 0
-13381 -13377 0
-13381 13380 0
13381 13377 -13380 0
-13382 -13378 0
-13382 -13381 0
13382 13378 13381 0
-13384 15 0
-13384 -88 0
13384 -15 88 0
-13385 -13383 0
-13385 -13384 0
13385 13383 13384 0
-13386 -13382 0
-13386 13385 0
13386 13382 -13385 0
-13387 -13383 0
-13387 -13386 0
13387 13383 13386 0
-13389 16 0
-13389 -89 0
13389 -16 89 0
-13390 -13388 0
-13390 -13389 0
13390 13388 13389 0
-13391 -13387 0
-13391 13390 0
13391 13387 -13390 0
-13392 -13388 0
-13392 -13391 0
13392 13388 13391 0
-13394 17 0
-13394 -90 0
13394 -17 90 0
-13395 -13393 0
-13395 -13394 0
13395 13393 13394 0
-13396 -13392 0
-13396 13395 0
13396 13392 -13395 0
-13397 -13393 0
-13397 -13396 0
13397 13393 13396 0
-13399 18 0
-13399 -91 0
13399 -18 91 0
-13400 -13398 0
-13400 -13399 0
13400 13398 13399 0
-13401 -13397 0
-13401 13400 0
13401 13397 -13400 0
-13402 -13398 0
-13402 -13401 0
13402 13398 13401 0
-13404 19 0
-13404 -92 0
13404 -19 92 0
-13405 -13403 0
-13405 -13404 0
13405 13403 13404 0
-13406 -13402 0
-13406 13405 0
13406 13402 -13405 0
-13407 -13403 0
-13407 -13406 0
13407 13403 13406 0
-13409 20 0
-13409 -93 0
13409 -20 93 0
-13410 -13408 0
-13410 -13409 0
13410 13408 13409 0
-13411 -13407 0
-13411 13410 0
13411 13407 -13410 0
-13412 -13408 0
-13412 -13411 0
13412 13408 13411 0
-13414 21 0
-13414 -94 0
13414 -21 94 0
-13415 -13413 0
-13415 -13414 0
13415 13413 13414 0
-13416 -13412 0
-13416 13415 0
13416 13412 -13415 0
-13417 -13413 0
-13417 -13416 0
13417 13413 13416 0
-13419 22 0
-13419 -95 0
13419 -22 95 0
-13420 -13418 0
-13420 -13419 0
13420 13418 13419 0
-13421 -13417 0
-13421 13420 0
13421 13417 -13420 0
-13422 -13418 0
-13422 -13421 0
13422 13418 13421 0
-13424 23 0
-13424 -96 0
13424 -23 96 0
-13425 -13423 0
-13425 -13424 0
13425 13423 13424 0
-13426 -13422 0
-13426 13425 0
13426 13422 -13425 0
-13427 -13423 0
-13427 -13426 0
13427 13423 13426 0
-13429 24 0
-13429 -97 0
13429 -24 97 0
-13430 -13428 0
-13430 -13429 0
13430 13428 13429 0
-13431 -13427 0
-13431 13430 0
13431 13427 -13430 0
-13432 -13428 0
-13432 -13431 0
13432 13428 13431 0
-13434 25 0
-13434 -98 0
13434 -25 98 0
-13435 -13433 0
-13435 -13434 0
13435 13433 13434 0
-13436 -13432 0
-13436 13435 0
13436 13432 -13435 0
-13437 -13433 0
-13437 -13436 0
13437 13433 13436 0
-13439 26 0
-13439 -99 0
13439 -26 99 0
-13440 -13438 0
-13440 -13439 0
13440 13438 13439 0
-13441 -13437 0
-13441 13440 0
13441 13437 -13440 0
-13442 -13438 0
-13442 -13441 0
13442 13438 13441 0
-13444 27 0
-13444 -100 0
13444 -27 100 0
-13445 -13443 0
-13445 -13444 0
13445 13443 13444 0
-13446 -13442 0
-13446 13445 0
13446 13442 -13445 0
-13447 -13443 0
-13447 -13446 0
13447 13443 13446 0
-13449 28 0
-13449 -101 0
13449 -28 101 0
-13450 -13448 0
-13450 -13449 0
13450 13448 13449 0
-13451 -13447 0
-13451 13450 0
13451 13447 -13450 0
-13452 -13448 0
-13452 -13451 0
13452 13448 13451 0
-13454 29 0
-13454 -102 0
13454 -29 102 0
-13455 -13453 0
-13455 -13454 0
13455 13453 13454 0
-13456 -13452 0
-13456 13455 0
13456 13452 -13455 0
-13457 -13453 0
-13457 -13456 0
13457 13453 13456 0
-13459 30 0
-13459 -103 0
13459 -30 103 0
-13460 -13458 0
-13460 -13459 0
13460 13458 13459 0
-13461 -13457 0
-13461 13460 0
13461 13457 -13460 0
-13462 -13458 0
-13462 -13461 0
13462 13458 13461 0
-13464 31 0
-13464 -104 0
13464 -31 104 0
-13465 -13463 0
-13465 -13464 0
13465 13463 13464 0
-13466 -13462 0
-13466 13465 0
13466 13462 -13465 0
-13467 -13463 0
-13467 -13466 0
13467 13463 13466 0
-13468 -105 0
-13468 -13467 0
13468 105 13467 0
-13469 -105 0
-13469 -13468 0
13469 105 13468 0
-13470 -106 0
-13470 -13469 0
13470 106 13469 0
-13471 -106 0
-13471 -13470 0
13471 106 13470 0
-13472 -107 0
-13472 -13471 0
13472 107 13471 0
-13473 -107 0
-13473 -13472 0
13473 107 13472 0
-13474 -108 0
-13474 -13473 0
13474 108 13473 0
-13475 -108 0
-13475 -13474 0
13475 108 13474 0
-13476 -109 0
-13476 -13475 0
13476 109 13475 0
-13477 -109 0
-13477 -13476 0
13477 109 13476 0
-13478 -110 0
-13478 -13477 0
13478 110 13477 0
-13479 -110 0
-13479 -13478 0
13479 110 13478 0
-13480 -111 0
-13480 -13479 0
13480 111 13479 0
-13481 -111 0
-13481 -13480 0
13481 111 13480 0
-13482 -112 0
-13482 -13481 0
13482 112 13481 0
-13483 -112 0
-13483 -13482 0
13483 112 13482 0
-13484 -113 0
-13484 -13483 0
13484 113 13483 0
-13485 -113 0
-13485 -13484 0
13485 113 13484 0
-13486 -114 0
-13486 -13485 0
13486 114 13485 0
-13487 -114 0
-13487 -13486 0
13487 114 13486 0
-13488 -115 0
-13488 -13487 0
13488 115 13487 0
-13489 -115 0
-13489 -13488 0
13489 115 13488 0
-13490 -116 0
-13490 -13489 0
13490 116 13489 0
-13491 -116 0
-13491 -13490 0
13491 116 13490 0
-13492 -117 0
-13492 -13491 0
13492 117 13491 0
-13493 -117 0
-13493 -13492 0
13493 117 13492 0
-13494 -118 0
-13494 -13493 0
13494 118 13493 0
-13495 -118 0
-13495 -13494 0
13495 118 13494 0
-13496 -119 0
-13496 -13495 0
13496 119 13495 0
-13497 -119 0
-13497 -13496 0
13497 119 13496 0
-13498 -120 0
-13498 -13497 0
13498 120 13497 0
-13499 -120 0
-13499 -13498 0
13499 120 13498 0
-13500 -121 0
-13500 -13499 0
13500 121 13499 0
-13501 -121 0
-13501 -13500 0
13501 121 13500 0
-13502 -122 0
-13502 -13501 0
13502 122 13501 0
-13503 -122 0
-13503 -13502 0
13503 122 13502 0
-13504 -123 0
-13504 -13503 0
13504 123 13503 0
-13505 -123 0
-13505 -13504 0
13505 123 13504 0
-13506 -124 0
-13506 -13505 0
13506 124 13505 0
-13507 -124 0
-13507 -13506 0
13507 124 13506 0
-13508 -125 0
-13508 -13507 0
13508 125 13507 0
-13509 -125 0
-13509 -13508 0
13509 125 13508 0
-13510 -126 0
-13510 -13509 0
13510 126 13509 0
-13511 -126 0
-13511 -13510 0
13511 126 13510 0
-13512 -127 0
-13512 -13511 0
13512 127 13511 0
-13513 -127 0
-13513 -13512 0
13513 127 13512 0
-13514 -128 0
-13514 -13513 0
13514 128 13513 0
-13515 -128 0
-13515 -13514 0
13515 128 13514 0
-13516 -129 0
-13516 -13515 0
13516 129 13515 0
-13517 -129 0
-13517 -13516 0
13517 129 13516 0
-13518 -130 0
-13518 -13517 0
13518 130 13517 0
-13519 -130 0
-13519 -13518 0
13519 130 13518 0
-13520 -131 0
-13520 -13519 0
13520 131 13519 0
-13521 -131 0
-13521 -13520 0
13521 131 13520 0
-13522 -132 0
-13522 -13521 0
13522 132 13521 0
-13523 -132 0
-13523 -13522 0
13523 132 13522 0
-13524 -133 0
-13524 -13523 0
13524 133 13523 0
-13525 -133 0
-13525 -13524 0
13525 133 13524 0
-13526 -134 0
-13526 -13525 0
13526 134 13525 0
-13527 -134 0
-13527 -13526 0
13527 134 13526 0
-13528 -135 0
-13528 -13527 0
13528 135 13527 0
-13529 -135 0
-13529 -13528 0
13529 135 13528 0
-13530 -136 0
-13530 -13529 0
13530 136 13529 0
-13531 -136 0
-13531 -13530 0
13531 136 13530 0
-13532 -137 0
-13532 -13531 0
13532 137 13531 0
-13533 -137 0
-13533 -13532 0
13533 137 13532 0
-13534 -138 0
-13534 -13533 0
13534 138 13533 0
-13535 -138 0
-13535 -13534 0
13535 138 13534 0
-13536 -2 0
-13536 -13535 0
13536 2 13535 0
-13537 77 0
-13537 1254 0
13537 -77 -1254 0
-13538 77 0
-13538 -13537 0
13538 -77 13537 0
-13539 -78 0
-13539 -13538 0
13539 78 13538 0
-13540 79 0
-13540 13539 0
13540 -79 -13539 0
-13541 79 0
-13541 -13540 0
13541 -79 13540 0
-13542 -80 0
-13542 -13541 0
13542 80 13541 0
-13543 81 0
-13543 13542 0
13543 -81 -13542 0
-13544 81 0
-13544 -13543 0
13544 -81 13543 0
-13545 -82 0
-13545 -13544 0
13545 82 13544 0
-13546 83 0
-13546 13545 0
13546 -83 -13545 0
-13547 83 0
-13547 -13546 0
13547 -83 13546 0
-13548 -84 0
-13548 -13547 0
13548 84 13547 0
-13549 85 0
-13549 13548 0
13549 -85 -13548 0
-13550 85 0
-13550 -13549 0
13550 -85 13549 0
-13551 -86 0
-13551 -13550 0
13551 86 13550 0
-13552 87 0
-13552 13551 0
13552 -87 -13551 0
-13553 87 0
-13553 -13552 0
13553 -87 13552 0
-13554 -88 0
-13554 -13553 0
13554 88 13553 0
-13555 89 0
-13555 13554 0
13555 -89 -13554 0
-13556 89 0
-13556 -13555 0
13556 -89 13555 0
-13557 -90 0
-13557 -13556 0
13557 90 13556 0
-13558 91 0
-13558 13557 0
13558 -91 -13557 0
-13559 91 0
-13559 -13558 0
13559 -91 13558 0
-13560 -92 0
-13560 -13559 0
13560 92 13559 0
-13561 93 0
-13561 13560 0
13561 -93 -13560 0
-13562 93 0
-13562 -13561 0
13562 -93 13561 0
-13563 -94 0
-13563 -13562 0
13563 94 13562 0
-13564 95 0
-13564 13563 0
13564 -95 -13563 0
-13565 95 0
-13565 -13564 0
13565 -95 13564 0
-13566 -96 0
-13566 -13565 0
13566 96 13565 0
-13567 97 0
-13567 13566 0
13567 -97 -13566 0
-13568 97 0
-13568 -13567 0
13568 -97 13567 0
-13569 -98 0
-13569 -13568 0
13569 98 13568 0
-13570 99 0
-13570 13569 0
13570 -99 -13569 0
-13571 99 0
-13571 -13570 0
13571 -99 13570 0
-13572 -100 0
-13572 -13571 0
13572 100 13571 0
-13573 101 0
-13573 13572 0
13573 -101 -13572 0
-13574 101 0
-13574 -13573 0
13574 -101 13573 0
-13575 -102 0
-13575 -13574 0
13575 102 13574 0
-13576 103 0
-13576 13575 0
13576 -103 -13575 0
-13577 103 0
-13577 -13576 0
13577 -103 13576 0
-13578 -104 0
-13578 -13577 0
13578 104 13577 0
-13579 105 0
-13579 13578 0
13579 -105 -13578 0
-13580 105 0
-13580 -13579 0
13580 -105 13579 0
-13581 -106 0
-13581 -13580 0
13581 106 13580 0
-13582 107 0
-13582 13581 0
13582 -107 -13581 0
-13583 107 0
-13583 -13582 0
13583 -107 13582 0
-13584 -108 0
-13584 -13583 0
13584 108 13583 0
-13585 109 0
-13585 13584 0
13585 -109 -13584 0
-13586 109 0
-13586 -13585 0
13586 -109 13585 0
-13587 -110 0
-13587 -13586 0
13587 110 13586 0
-13588 111 0
-13588 13587 0
13588 -111 -13587 0
-13589 111 0
-13589 -13588 0
13589 -111 13588 0
-13590 -112 0
-13590 -13589 0
13590 112 13589 0
-13591 113 0
-13591 13590 0
13591 -113 -13590 0
-13592 113 0
-13592 -13591 0
13592 -113 13591 0
-13593 -114 0
-13593 -13592 0
13593 114 13592 0
-13594 115 0
-13594 13593 0
13594 -115 -13593 0
-13595 115 0
-13595 -13594 0
13595 -115 13594 0
-13596 -116 0
-13596 -13595 0
13596 116 13595 0
-13597 117 0
-13597 13596 0
13597 -117 -13596 0
-13598 117 0
-13598 -13597 0
13598 -117 13597 0
-13599 -118 0
-13599 -13598 0
13599 118 13598 0
-13600 119 0
-13600 13599 0
13600 -119 -13599 0
-13601 119 0
-13601 -13600 0
13601 -119 13600 0
-13602 -120 0
-13602 -13601 0
13602 120 13601 0
-13603 121 0
-13603 13602 0
13603 -121 -13602 0
-13604 121 0
-13604 -13603 0
13604 -121 13603 0
-13605 -122 0
-13605 -13604 0
13605 122 13604 0
-13606 123 0
-13606 13605 0
13606 -123 -13605 0
-13607 123 0
-13607 -13606 0
13607 -123 13606 0
-13608 -124 0
-13608 -13607 0
13608 124 13607 0
-13609 125 0
-13609 13608 0
13609 -125 -13608 0
-13610 125 0
-13610 -13609 0
13610 -125 13609 0
-13611 -126 0
-13611 -13610 0
13611 126 13610 0
-13612 127 0
-13612 13611 0
13612 -127 -13611 0
-13613 127 0
-13613 -13612 0
13613 -127 13612 0
-13614 -128 0
-13614 -13613 0
13614 128 13613 0
-13615 129 0
-13615 13614 0
13615 -129 -13614 0
-13616 129 0
-13616 -13615 0
13616 -129 13615 0
-13617 -130 0
-13617 -13616 0
13617 130 13616 0
-13618 131 0
-13618 13617 0
13618 -131 -13617 0
-13619 131 0
-13619 -13618 0
13619 -131 13618 0
-13620 -132 0
-13620 -13619 0
13620 132 13619 0
-13621 133 0
-13621 13620 0
13621 -133 -13620 0
-13622 133 0
-13622 -13621 0
13622 -133 13621 0
-13623 -134 0
-13623 -13622 0
13623 134 13622 0
-13624 135 0
-13624 13623 0
13624 -135 -13623 0
-13625 135 0
-13625 -13624 0
13625 -135 13624 0
-13626 -136 0
-13626 -13625 0
13626 136 13625 0
-13627 137 0
-13627 13626 0
13627 -137 -13626 0
-13628 137 0
-13628 -13627 0
13628 -137 13627 0
-13629 -138 0
-13629 -13628 0
13629 138 13628 0
-13630 746 0
-13630 -13629 0
13630 -746 13629 0
-13631 -13536 0
-13631 -13630 0
13631 13536 13630 0
-13684 765 0
-13684 797 0
13684 -765 -797 0
-13677 764 0
-13677 796 0
13677 -764 -796 0
-13670 763 0
-13670 795 0
13670 -763 -795 0
-13663 762 0
-13663 794 0
13663 -762 -794 0
-13656 761 0
-13656 793 0
13656 -761 -793 0
-13649 760 0
-13649 792 0
13649 -760 -792 0
-13642 759 0
-13642 791 0
13642 -759 -791 0
-13635 758 0
-13635 790 0
13635 -758 -790 0
-13632 757 0
-13632 789 0
13632 -757 -789 0
-13636 -758 0
-13636 -790 0
13636 758 790 0
-13637 -13635 0
-13637 -13636 0
13637 13635 13636 0
-13638 13632 0
-13638 13637 0
13638 -13632 -13637 0
-13641 -13635 0
-13641 -13638 0
13641 13635 13638 0
-13643 -759 0
-13643 -791 0
13643 759 791 0
-13644 -13642 0
-13644 -13643 0
13644 13642 13643 0
-13645 -13641 0
-13645 13644 0
13645 13641 -13644 0
-13648 -13642 0
-13648 -13645 0
13648 13642 13645 0
-13650 -760 0
-13650 -792 0
13650 760 792 0
-13651 -13649 0
-13651 -13650 0
13651 13649 13650 0
-13652 -13648 0
-13652 13651 0
13652 13648 -13651 0
-13655 -13649 0
-13655 -13652 0
13655 13649 13652 0
-13657 -761 0
-13657 -793 0
13657 761 793 0
-13658 -13656 0
-13658 -13657 0
13658 13656 13657 0
-13659 -13655 0
-13659 13658 0
13659 13655 -13658 0
-13662 -13656 0
-13662 -13659 0
13662 13656 13659 0
-13664 -762 0
-13664 -794 0
13664 762 794 0
-13665 -13663 0
-13665 -13664 0
13665 13663 13664 0
-13666 -13662 0
-13666 13665 0
13666 13662 -13665 0
-13669 -13663 0
-13669 -13666 0
13669 13663 13666 0
-13671 -763 0
-13671 -795 0
13671 763 795 0
-13672 -13670 0
-13672 -13671 0
13672 13670 13671 0
-13673 -13669 0
-13673 13672 0
13673 13669 -13672 0
-13676 -13670 0
-13676 -13673 0
13676 13670 13673 0
-13678 -764 0
-13678 -796 0
13678 764 796 0
-13679 -13677 0
-13679 -13678 0
13679 13677 13678 0
-13680 -13676 0
-13680 13679 0
13680 13676 -13679 0
-13683 -13677 0
-13683 -13680 0
13683 13677 13680 0
-13685 -765 0
-13685 -797 0
13685 765 797 0
-13686 -13684 0
-13686 -13685 0
13686 13684 13685 0
-13687 -13683 0
-13687 13686 0
13687 13683 -13686 0
-13690 -13684 0
-13690 -13687 0
13690 13684 13687 0
-13691 766 0
-13691 798 0
13691 -766 -798 0
-13692 -766 0
-13692 -798 0
13692 766 798 0
-13693 -13691 0
-13693 -13692 0
13693 13691 13692 0
-13694 -13690 0
-13694 13693 0
13694 13690 -13693 0
-13695 13690 0
-13695 -13693 0
13695 -13690 13693 0
-13696 -13694 0
-13696 -13695 0
13696 13694 13695 0
-13688 13683 0
-13688 -13686 0
13688 -13683 13686 0
-13689 -13687 0
-13689 -13688 0
13689 13687 13688 0
-13681 13676 0
-13681 -13679 0
13681 -13676 13679 0
-13682 -13680 0
-13682 -13681 0
13682 13680 13681 0
-13674 13669 0
-13674 -13672 0
13674 -13669 13672 0
-13675 -13673 0
-13675 -13674 0
13675 13673 13674 0
-13667 13662 0
-13667 -13665 0
13667 -13662 13665 0
-13668 -13666 0
-13668 -13667 0
13668 13666 13667 0
-13660 13655 0
-13660 -13658 0
13660 -13655 13658 0
-13661 -13659 0
-13661 -13660 0
13661 13659 13660 0
-13653 13648 0
-13653 -13651 0
13653 -13648 13651 0
-13654 -13652 0
-13654 -13653 0
13654 13652 13653 0
-13639 -13632 0
-13639 -13637 0
13639 13632 13637 0
-13640 -13638 0
-13640 -13639 0
13640 13638 13639 0
-13646 13641 0
-13646 -13644 0
13646 -13641 13644 0
-13647 -13645 0
-13647 -13646 0
13647 13645 13646 0
-13698 -13640 0
-13698 -13647 0
13698 13640 13647 0
-13699 -13654 0
-13699 13698 0
13699 13654 -13698 0
-13700 -13661 0
-13700 13699 0
13700 13661 -13699 0
-13701 -13668 0
-13701 13700 0
13701 13668 -13700 0
-13702 -13675 0
-13702 13701 0
13702 13675 -13701 0
-13703 -13682 0
-13703 13702 0
13703 13682 -13702 0
-13704 -13689 0
-13704 13703 0
13704 13689 -13703 0
-13705 -13696 0
-13705 13704 0
13705 13696 -13704 0
-13850 -31 0
-13850 1218 0
13850 31 -1218 0
-13845 -30 0
-13845 1217 0
13845 30 -1217 0
-13840 -29 0
-13840 1216 0
13840 29 -1216 0
-13835 -28 0
-13835 1215 0
13835 28 -1215 0
-13830 -27 0
-13830 1214 0
13830 27 -1214 0
-13825 -26 0
-13825 1213 0
13825 26 -1213 0
-13820 -25 0
-13820 1212 0
13820 25 -1212 0
-13815 -24 0
-13815 1211 0
13815 24 -1211 0
-13810 -23 0
-13810 1210 0
13810 23 -1210 0
-13805 -22 0
-13805 1209 0
13805 22 -1209 0
-13800 -21 0
-13800 1208 0
13800 21 -1208 0
-13795 -20 0
-13795 1207 0
13795 20 -1207 0
-13790 -19 0
-13790 1206 0
13790 19 -1206 0
-13785 -18 0
-13785 1205 0
13785 18 -1205 0
-13780 -17 0
-13780 1204 0
13780 17 -1204 0
-13775 -16 0
-13775 1203 0
13775 16 -1203 0
-13770 -15 0
-13770 1202 0
13770 15 -1202 0
-13765 -14 0
-13765 1201 0
13765 14 -1201 0
-13760 -13 0
-13760 1200 0
13760 13 -1200 0
-13755 -12 0
-13755 1199 0
13755 12 -1199 0
-13750 -11 0
-13750 1198 0
13750 11 -1198 0
-13745 -10 0
-13745 1197 0
13745 10 -1197 0
-13740 -9 0
-13740 1196 0
13740 9 -1196 0
-13735 -8 0
-13735 1195 0
13735 8 -1195 0
-13730 -7 0
-13730 1194 0
13730 7 -1194 0
-13725 -6 0
-13725 1193 0
13725 6 -1193 0
-13720 -5 0
-13720 1192 0
13720 5 -1192 0
-13715 -4 0
-13715 1191 0
13715 4 -1191 0
-13710 -3 0
-13710 1190 0
13710 3 -1190 0
-13706 -2 0
-13706 1189 0
13706 2 -1189 0
-13707 2 0
-13707 -1189 0
13707 -2 1189 0
-13708 -13706 0
-13708 -13707 0
13708 13706 13707 0
-13709 -13706 0
-13709 -13708 0
13709 13706 13708 0
-13711 3 0
-13711 -1190 0
13711 -3 1190 0
-13712 -13710 0
-13712 -13711 0
13712 13710 13711 0
-13713 -13709 0
-13713 13712 0
13713 13709 -13712 0
-13714 -13710 0
-13714 -13713 0
13714 13710 13713 0
-13716 4 0
-13716 -1191 0
13716 -4 1191 0
-13717 -13715 0
-13717 -13716 0
13717 13715 13716 0
-13718 -13714 0
-13718 13717 0
13718 13714 -13717 0
-13719 -13715 0
-13719 -13718 0
13719 13715 13718 0
-13721 5 0
-13721 -1192 0
13721 -5 1192 0
-13722 -13720 0
-13722 -13721 0
13722 13720 13721 0
-13723 -13719 0
-13723 13722 0
13723 13719 -13722 0
-13724 -13720 0
-13724 -13723 0
13724 13720 13723 0
-13726 6 0
-13726 -1193 0
13726 -6 1193 0
-13727 -13725 0
-13727 -13726 0
13727 13725 13726 0
-13728 -13724 0
-13728 13727 0
13728 13724 -13727 0
-13729 -13725 0
-13729 -13728 0
13729 13725 13728 0
-13731 7 0
-13731 -1194 0
13731 -7 1194 0
-13732 -13730 0
-13732 -13731 0
13732 13730 13731 0
-13733 -13729 0
-13733 13732 0
13733 13729 -13732 0
-13734 -13730 0
-13734 -13733 0
13734 13730 13733 0
-13736 8 0
-13736 -1195 0
13736 -8 1195 0
-13737 -13735 0
-13737 -13736 0
13737 13735 13736 0
-13738 -13734 0
-13738 13737 0
13738 13734 -13737 0
-13739 -13735 0
-13739 -13738 0
13739 13735 13738 0
-13741 9 0
-13741 -1196 0
13741 -9 1196 0
-13742 -13740 0
-13742 -13741 0
13742 13740 13741 0
-13743 -13739 0
-13743 13742 0
13743 13739 -13742 0
-13744 -13740 0
-13744 -13743 0
13744 13740 13743 0
-13746 10 0
-13746 -1197 0
13746 -10 1197 0
-13747 -13745 0
-13747 -13746 0
13747 13745 13746 0
-13748 -13744 0
-13748 13747 0
13748 13744 -13747 0
-13749 -13745 0
-13749 -13748 0
13749 13745 13748 0
-13751 11 0
-13751 -1198 0
13751 -11 1198 0
-13752 -13750 0
-13752 -13751 0
13752 13750 13751 0
-13753 -13749 0
-13753 13752 0
13753 13749 -13752 0
-13754 -13750 0
-13754 -13753 0
13754 13750 13753 0
-13756 12 0
-13756 -1199 0
13756 -12 1199 0
-13757 -13755 0
-13757 -13756 0
13757 13755 13756 0
-13758 -13754 0
-13758 13757 0
13758 13754 -13757 0
-13759 -13755 0
-13759 -13758 0
13759 13755 13758 0
-13761 13 0
-13761 -1200 0
13761 -13 1200 0
-13762 -13760 0
-13762 -13761 0
13762 13760 13761 0
-13763 -13759 0
-13763 13762 0
13763 13759 -13762 0
-13764 -13760 0
-13764 -13763 0
13764 13760 13763 0
-13766 14 0
-13766 -1201 0
13766 -14 1201 0
-13767 -13765 0
-13767 -13766 0
13767 13765 13766 0
-13768 -13764 0
-13768 13767 0
13768 13764 -13767 0
-13769 -13765 0
-13769 -13768 0
13769 13765 13768 0
-13771 15 0
-13771 -1202 0
13771 -15 1202 0
-13772 -13770 0
-13772 -13771 0
13772 13770 13771 0
-13773 -13769 0
-13773 13772 0
13773 13769 -13772 0
-13774 -13770 0
-13774 -13773 0
13774 13770 13773 0
-13776 16 0
-13776 -1203 0
13776 -16 1203 0
-13777 -13775 0
-13777 -13776 0
13777 13775 13776 0
-13778 -13774 0
-13778 13777 0
13778 13774 -13777 0
-13779 -13775 0
-13779 -13778 0
13779 13775 13778 0
-13781 17 0
-13781 -1204 0
13781 -17 1204 0
-13782 -13780 0
-13782 -13781 0
13782 13780 13781 0
-13783 -13779 0
-13783 13782 0
13783 13779 -13782 0
-13784 -13780 0
-13784 -13783 0
13784 13780 13783 0
-13786 18 0
-13786 -1205 0
13786 -18 1205 0
-13787 -13785 0
-13787 -13786 0
13787 13785 13786 0
-13788 -13784 0
-13788 13787 0
13788 13784 -13787 0
-13789 -13785 0
-13789 -13788 0
13789 13785 13788 0
-13791 19 0
-13791 -1206 0
13791 -19 1206 0
-13792 -13790 0
-13792 -13791 0
13792 13790 13791 0
-13793 -13789 0
-13793 13792 0
13793 13789 -13792 0
-13794 -13790 0
-13794 -13793 0
13794 13790 13793 0
-13796 20 0
-13796 -1207 0
13796 -20 1207 0
-13797 -13795 0
-13797 -13796 0
13797 13795 13796 0
-13798 -13794 0
-13798 13797 0
13798 13794 -13797 0
-13799 -13795 0
-13799 -13798 0
13799 13795 13798 0
-13801 21 0
-13801 -1208 0
13801 -21 1208 0
-13802 -13800 0
-13802 -13801 0
13802 13800 13801 0
-13803 -13799 0
-13803 13802 0
13803 13799 -13802 0
-13804 -13800 0
-13804 -13803 0
13804 13800 13803 0
-13806 22 0
-13806 -1209 0
13806 -22 1209 0
-13807 -13805 0
-13807 -13806 0
13807 13805 13806 0
-13808 -13804 0
-13808 13807 0
13808 13804 -13807 0
-13809 -13805 0
-13809 -13808 0
13809 13805 13808 0
-13811 23 0
-13811 -1210 0
13811 -23 1210 0
-13812 -13810 0
-13812 -13811 0
13812 13810 13811 0
-13813 -13809 0
-13813 13812 0
13813 13809 -13812 0
-13814 -13810 0
-13814 -13813 0
13814 13810 13813 0
-13816 24 0
-13816 -1211 0
13816 -24 1211 0
-13817 -13815 0
-13817 -13816 0
13817 13815 13816 0
-13818 -13814 0
-13818 13817 0
13818 13814 -13817 0
-13819 -13815 0
-13819 -13818 0
13819 13815 13818 0
-13821 25 0
-13821 -1212 0
13821 -25 1212 0
-13822 -13820 0
-13822 -13821 0
13822 13820 13821 0
-13823 -13819 0
-13823 13822 0
13823 13819 -13822 0
-13824 -13820 0
-13824 -13823 0
13824 13820 13823 0
-13826 26 0
-13826 -1213 0
13826 -26 1213 0
-13827 -13825 0
-13827 -13826 0
13827 13825 13826 0
-13828 -13824 0
-13828 13827 0
13828 13824 -13827 0
-13829 -13825 0
-13829 -13828 0
13829 13825 13828 0
-13831 27 0
-13831 -1214 0
13831 -27 1214 0
-13832 -13830 0
-13832 -13831 0
13832 13830 13831 0
-13833 -13829 0
-13833 13832 0
13833 13829 -13832 0
-13834 -13830 0
-13834 -13833 0
13834 13830 13833 0
-13836 28 0
-13836 -1215 0
13836 -28 1215 0
-13837 -13835 0
-13837 -13836 0
13837 13835 13836 0
-13838 -13834 0
-13838 13837 0
13838 13834 -13837 0
-13839 -13835 0
-13839 -13838 0
13839 13835 13838 0
-13841 29 0
-13841 -1216 0
13841 -29 1216 0
-13842 -13840 0
-13842 -13841 0
13842 13840 13841 0
-13843 -13839 0
-13843 13842 0
13843 13839 -13842 0
-13844 -13840 0
-13844 -13843 0
13844 13840 13843 0
-13846 30 0
-13846 -1217 0
13846 -30 1217 0
-13847 -13845 0
-13847 -13846 0
13847 13845 13846 0
-13848 -13844 0
-13848 13847 0
13848 13844 -13847 0
-13849 -13845 0
-13849 -13848 0
13849 13845 13848 0
-13851 31 0
-13851 -1218 0
13851 -31 1218 0
-13852 -13850 0
-13852 -13851 0
13852 13850 13851 0
-13853 -13849 0
-13853 13852 0
13853 13849 -13852 0
-13854 -13850 0
-13854 -13853 0
13854 13850 13853 0
-13855 -1219 0
-13855 -13854 0
13855 1219 13854 0
-13856 -1219 0
-13856 -13855 0
13856 1219 13855 0
-13857 -1220 0
-13857 -13856 0
13857 1220 13856 0
-13858 -1220 0
-13858 -13857 0
13858 1220 13857 0
-13859 -1221 0
-13859 -13858 0
13859 1221 13858 0
-13860 -1221 0
-13860 -13859 0
13860 1221 13859 0
-13861 -1222 0
-13861 -13860 0
13861 1222 13860 0
-13862 -1222 0
-13862 -13861 0
13862 1222 13861 0
-13863 -1223 0
-13863 -13862 0
13863 1223 13862 0
-13864 -1223 0
-13864 -13863 0
13864 1223 13863 0
-13865 -1224 0
-13865 -13864 0
13865 1224 13864 0
-13866 -1224 0
-13866 -13865 0
13866 1224 13865 0
-13867 -1225 0
-13867 -13866 0
13867 1225 13866 0
-13868 -1225 0
-13868 -13867 0
13868 1225 13867 0
-13869 -1226 0
-13869 -13868 0
13869 1226 13868 0
-13870 -1226 0
-13870 -13869 0
13870 1226 13869 0
-13871 -1227 0
-13871 -13870 0
13871 1227 13870 0
-13872 -1227 0
-13872 -13871 0
13872 1227 13871 0
-13873 -1228 0
-13873 -13872 0
13873 1228 13872 0
-13874 -1228 0
-13874 -13873 0
13874 1228 13873 0
-13875 -1229 0
-13875 -13874 0
13875 1229 13874 0
-13876 -1229 0
-13876 -13875 0
13876 1229 13875 0
-13877 -1230 0
-13877 -13876 0
13877 1230 13876 0
-13878 -1230 0
-13878 -13877 0
13878 1230 13877 0
-13879 -1231 0
-13879 -13878 0
13879 1231 13878 0
-13880 -1231 0
-13880 -13879 0
13880 1231 13879 0
-13881 -1232 0
-13881 -13880 0
13881 1232 13880 0
-13882 -1232 0
-13882 -13881 0
13882 1232 13881 0
-13883 -1233 0
-13883 -13882 0
13883 1233 13882 0
-13884 -1233 0
-13884 -13883 0
13884 1233 13883 0
-13885 -1234 0
-13885 -13884 0
13885 1234 13884 0
-13886 -1234 0
-13886 -13885 0
13886 1234 13885 0
-13887 -1235 0
-13887 -13886 0
13887 1235 13886 0
-13888 -1235 0
-13888 -13887 0
13888 1235 13887 0
-13889 -1236 0
-13889 -13888 0
13889 1236 13888 0
-13890 -1236 0
-13890 -13889 0
13890 1236 13889 0
-13891 -1237 0
-13891 -13890 0
13891 1237 13890 0
-13892 -1237 0
-13892 -13891 0
13892 1237 13891 0
-13893 -1238 0
-13893 -13892 0
13893 1238 13892 0
-13894 -1238 0
-13894 -13893 0
13894 1238 13893 0
-13895 -1239 0
-13895 -13894 0
13895 1239 13894 0
-13896 -1239 0
-13896 -13895 0
13896 1239 13895 0
-13897 -1240 0
-13897 -13896 0
13897 1240 13896 0
-13898 -1240 0
-13898 -13897 0
13898 1240 13897 0
-13899 -1241 0
-13899 -13898 0
13899 1241 13898 0
-13900 -1241 0
-13900 -13899 0
13900 1241 13899 0
-13901 -1242 0
-13901 -13900 0
13901 1242 13900 0
-13902 -1242 0
-13902 -13901 0
13902 1242 13901 0
-13903 -1243 0
-13903 -13902 0
13903 1243 13902 0
-13904 -1243 0
-13904 -13903 0
13904 1243 13903 0
-13905 -1244 0
-13905 -13904 0
13905 1244 13904 0
-13906 -1244 0
-13906 -13905 0
13906 1244 13905 0
-13907 -1245 0
-13907 -13906 0
13907 1245 13906 0
-13908 -1245 0
-13908 -13907 0
13908 1245 13907 0
-13909 -1246 0
-13909 -13908 0
13909 1246 13908 0
-13910 -1246 0
-13910 -13909 0
13910 1246 13909 0
-13911 -1247 0
-13911 -13910 0
13911 1247 13910 0
-13912 -1247 0
-13912 -13911 0
13912 1247 13911 0
-13913 -1248 0
-13913 -13912 0
13913 1248 13912 0
-13914 -1248 0
-13914 -13913 0
13914 1248 13913 0
-13915 -1249 0
-13915 -13914 0
13915 1249 13914 0
-13916 -1249 0
-13916 -13915 0
13916 1249 13915 0
-13917 -1250 0
-13917 -13916 0
13917 1250 13916 0
-13918 -1250 0
-13918 -13917 0
13918 1250 13917 0
-13919 -1251 0
-13919 -13918 0
13919 1251 13918 0
-13920 -1251 0
-13920 -13919 0
13920 1251 13919 0
-13921 -1252 0
-13921 -13920 0
13921 1252 13920 0
-13922 -1252 0
-13922 -13921 0
13922 1252 13921 0
-13923 13705 0
-13923 -13922 0
13923 -13705 13922 0
-13924 13631 0
-13924 -13923 0
13924 -13631 13923 0
-13925 1191 0
-13925 3069 0
13925 -1191 -3069 0
-13926 1191 0
-13926 -13925 0
13926 -1191 13925 0
-13927 -1192 0
-13927 -13926 0
13927 1192 13926 0
-13928 1193 0
-13928 13927 0
13928 -1193 -13927 0
-13929 1193 0
-13929 -13928 0
13929 -1193 13928 0
-13930 -1194 0
-13930 -13929 0
13930 1194 13929 0
-13931 1195 0
-13931 13930 0
13931 -1195 -13930 0
-13932 1195 0
-13932 -13931 0
13932 -1195 13931 0
-13933 -1196 0
-13933 -13932 0
13933 1196 13932 0
-13934 1197 0
-13934 13933 0
13934 -1197 -13933 0
-13935 1197 0
-13935 -13934 0
13935 -1197 13934 0
-13936 -1198 0
-13936 -13935 0
13936 1198 13935 0
-13937 1199 0
-13937 13936 0
13937 -1199 -13936 0
-13938 1199 0
-13938 -13937 0
13938 -1199 13937 0
-13939 -1200 0
-13939 -13938 0
13939 1200 13938 0
-13940 1201 0
-13940 13939 0
13940 -1201 -13939 0
-13941 1201 0
-13941 -13940 0
13941 -1201 13940 0
-13942 -1202 0
-13942 -13941 0
13942 1202 13941 0
-13943 1203 0
-13943 13942 0
13943 -1203 -13942 0
-13944 1203 0
-13944 -13943 0
13944 -1203 13943 0
-13945 -1204 0
-13945 -13944 0
13945 1204 13944 0
-13946 1205 0
-13946 13945 0
13946 -1205 -13945 0
-13947 1205 0
-13947 -13946 0
13947 -1205 13946 0
-13948 -1206 0
-13948 -13947 0
13948 1206 13947 0
-13949 1207 0
-13949 13948 0
13949 -1207 -13948 0
-13950 1207 0
-13950 -13949 0
13950 -1207 13949 0
-13951 -1208 0
-13951 -13950 0
13951 1208 13950 0
-13952 1209 0
-13952 13951 0
13952 -1209 -13951 0
-13953 1209 0
-13953 -13952 0
13953 -1209 13952 0
-13954 -1210 0
-13954 -13953 0
13954 1210 13953 0
-13955 1211 0
-13955 13954 0
13955 -1211 -13954 0
-13956 1211 0
-13956 -13955 0
13956 -1211 13955 0
-13957 -1212 0
-13957 -13956 0
13957 1212 13956 0
-13958 1213 0
-13958 13957 0
13958 -1213 -13957 0
-13959 1213 0
-13959 -13958 0
13959 -1213 13958 0
-13960 -1214 0
-13960 -13959 0
13960 1214 13959 0
-13961 1215 0
-13961 13960 0
13961 -1215 -13960 0
-13962 1215 0
-13962 -13961 0
13962 -1215 13961 0
-13963 -1216 0
-13963 -13962 0
13963 1216 13962 0
-13964 1217 0
-13964 13963 0
13964 -1217 -13963 0
-13965 1217 0
-13965 -13964 0
13965 -1217 13964 0
-13966 -1218 0
-13966 -13965 0
13966 1218 13965 0
-13967 1219 0
-13967 13966 0
13967 -1219 -13966 0
-13968 1219 0
-13968 -13967 0
13968 -1219 13967 0
-13969 -1220 0
-13969 -13968 0
13969 1220 13968 0
-13970 1221 0
-13970 13969 0
13970 -1221 -13969 0
-13971 1221 0
-13971 -13970 0
13971 -1221 13970 0
-13972 -1222 0
-13972 -13971 0
13972 1222 13971 0
-13973 1223 0
-13973 13972 0
13973 -1223 -13972 0
-13974 1223 0
-13974 -13973 0
13974 -1223 13973 0
-13975 -1224 0
-13975 -13974 0
13975 1224 13974 0
-13976 1225 0
-13976 13975 0
13976 -1225 -13975 0
-13977 1225 0
-13977 -13976 0
13977 -1225 13976 0
-13978 -1226 0
-13978 -13977 0
13978 1226 13977 0
-13979 1227 0
-13979 13978 0
13979 -1227 -13978 0
-13980 1227 0
-13980 -13979 0
13980 -1227 13979 0
-13981 -1228 0
-13981 -13980 0
13981 1228 13980 0
-13982 1229 0
-13982 13981 0
13982 -1229 -13981 0
-13983 1229 0
-13983 -13982 0
13983 -1229 13982 0
-13984 -1230 0
-13984 -13983 0
13984 1230 13983 0
-13985 1231 0
-13985 13984 0
13985 -1231 -13984 0
-13986 1231 0
-13986 -13985 0
13986 -1231 13985 0
-13987 -1232 0
-13987 -13986 0
13987 1232 13986 0
-13988 1233 0
-13988 13987 0
13988 -1233 -13987 0
-13989 1233 0
-13989 -13988 0
13989 -1233 13988 0
-13990 -1234 0
-13990 -13989 0
13990 1234 13989 0
-13991 1235 0
-13991 13990 0
13991 -1235 -13990 0
-13992 1235 0
-13992 -13991 0
13992 -1235 13991 0
-13993 -1236 0
-13993 -13992 0
13993 1236 13992 0
-13994 1237 0
-13994 13993 0
13994 -1237 -13993 0
-13995 1237 0
-13995 -13994 0
13995 -1237 13994 0
-13996 -1238 0
-13996 -13995 0
13996 1238 13995 0
-13997 1239 0
-13997 13996 0
13997 -1239 -13996 0
-13998 1239 0
-13998 -13997 0
13998 -1239 13997 0
-13999 -1240 0
-13999 -13998 0
13999 1240 13998 0
-14000 1241 0
-14000 13999 0
14000 -1241 -13999 0
-14001 1241 0
-14001 -14000 0
14001 -1241 14000 0
-14002 -1242 0
-14002 -14001 0
14002 1242 14001 0
-14003 1243 0
-14003 14002 0
14003 -1243 -14002 0
-14004 1243 0
-14004 -14003 0
14004 -1243 14003 0
-14005 -1244 0
-14005 -14004 0
14005 1244 14004 0
-14006 1245 0
-14006 14005 0
14006 -1245 -14005 0
-14007 1245 0
-14007 -14006 0
14007 -1245 14006 0
-14008 -1246 0
-14008 -14007 0
14008 1246 14007 0
-14009 1247 0
-14009 14008 0
14009 -1247 -14008 0
-14010 1247 0
-14010 -14009 0
14010 -1247 14009 0
-14011 -1248 0
-14011 -14010 0
14011 1248 14010 0
-14012 1249 0
-14012 14011 0
14012 -1249 -14011 0
-14013 1249 0
-14013 -14012 0
14013 -1249 14012 0
-14014 -1250 0
-14014 -14013 0
14014 1250 14013 0
-14015 1251 0
-14015 14014 0
14015 -1251 -14014 0
-14016 1251 0
-14016 -14015 0
14016 -1251 14015 0
-14017 -1252 0
-14017 -14016 0
14017 1252 14016 0
-14018 2398 0
-14018 -14017 0
14018 -2398 14017 0
-14019 13924 0
-14019 -14018 0
14019 -13924 14018 0
-14072 2417 0
-14072 13689 0
14072 -2417 -13689 0
-14065 2416 0
-14065 13682 0
14065 -2416 -13682 0
-14058 2415 0
-14058 13675 0
14058 -2415 -13675 0
-14051 2414 0
-14051 13668 0
14051 -2414 -13668 0
-14044 2413 0
-14044 13661 0
14044 -2413 -13661 0
-14037 2412 0
-14037 13654 0
14037 -2412 -13654 0
-14030 2411 0
-14030 13647 0
14030 -2411 -13647 0
-14023 2410 0
-14023 13640 0
14023 -2410 -13640 0
-13633 -757 0
-13633 -789 0
13633 757 789 0
-13634 -13632 0
-13634 -13633 0
13634 13632 13633 0
-14020 2409 0
-14020 13634 0
14020 -2409 -13634 0
-14024 -2410 0
-14024 -13640 0
14024 2410 13640 0
-14025 -14023 0
-14025 -14024 0
14025 14023 14024 0
-14026 14020 0
-14026 14025 0
14026 -14020 -14025 0
-14029 -14023 0
-14029 -14026 0
14029 14023 14026 0
-14031 -2411 0
-14031 -13647 0
14031 2411 13647 0
-14032 -14030 0
-14032 -14031 0
14032 14030 14031 0
-14033 -14029 0
-14033 14032 0
14033 14029 -14032 0
-14036 -14030 0
-14036 -14033 0
14036 14030 14033 0
-14038 -2412 0
-14038 -13654 0
14038 2412 13654 0
-14039 -14037 0
-14039 -14038 0
14039 14037 14038 0
-14040 -14036 0
-14040 14039 0
14040 14036 -14039 0
-14043 -14037 0
-14043 -14040 0
14043 14037 14040 0
-14045 -2413 0
-14045 -13661 0
14045 2413 13661 0
-14046 -14044 0
-14046 -14045 0
14046 14044 14045 0
-14047 -14043 0
-14047 14046 0
14047 14043 -14046 0
-14050 -14044 0
-14050 -14047 0
14050 14044 14047 0
-14052 -2414 0
-14052 -13668 0
14052 2414 13668 0
-14053 -14051 0
-14053 -14052 0
14053 14051 14052 0
-14054 -14050 0
-14054 14053 0
14054 14050 -14053 0
-14057 -14051 0
-14057 -14054 0
14057 14051 14054 0
-14059 -2415 0
-14059 -13675 0
14059 2415 13675 0
-14060 -14058 0
-14060 -14059 0
14060 14058 14059 0
-14061 -14057 0
-14061 14060 0
14061 14057 -14060 0
-14064 -14058 0
-14064 -14061 0
14064 14058 14061 0
-14066 -2416 0
-14066 -13682 0
14066 2416 13682 0
-14067 -14065 0
-14067 -14066 0
14067 14065 14066 0
-14068 -14064 0
-14068 14067 0
14068 14064 -14067 0
-14071 -14065 0
-14071 -14068 0
14071 14065 14068 0
-14073 -2417 0
-14073 -13689 0
14073 2417 13689 0
-14074 -14072 0
-14074 -14073 0
14074 14072 14073 0
-14075 -14071 0
-14075 14074 0
14075 14071 -14074 0
-14078 -14072 0
-14078 -14075 0
14078 14072 14075 0
-14079 2418 0
-14079 13696 0
14079 -2418 -13696 0
-14080 -2418 0
-14080 -13696 0
14080 2418 13696 0
-14081 -14079 0
-14081 -14080 0
14081 14079 14080 0
-14082 -14078 0
-14082 14081 0
14082 14078 -14081 0
-14083 14078 0
-14083 -14081 0
14083 -14078 14081 0
-14084 -14082 0
-14084 -14083 0
14084 14082 14083 0
-14076 14071 0
-14076 -14074 0
14076 -14071 14074 0
-14077 -14075 0
-14077 -14076 0
14077 14075 14076 0
-14069 14064 0
-14069 -14067 0
14069 -14064 14067 0
-14070 -14068 0
-14070 -14069 0
14070 14068 14069 0
-14062 14057 0
-14062 -14060 0
14062 -14057 14060 0
-14063 -14061 0
-14063 -14062 0
14063 14061 14062 0
-14055 14050 0
-14055 -14053 0
14055 -14050 14053 0
-14056 -14054 0
-14056 -14055 0
14056 14054 14055 0
-14048 14043 0
-14048 -14046 0
14048 -14043 14046 0
-14049 -14047 0
-14049 -14048 0
14049 14047 14048 0
-14041 14036 0
-14041 -14039 0
14041 -14036 14039 0
-14042 -14040 0
-14042 -14041 0
14042 14040 14041 0
-14027 -14020 0
-14027 -14025 0
14027 14020 14025 0
-14028 -14026 0
-14028 -14027 0
14028 14026 14027 0
-14034 14029 0
-14034 -14032 0
14034 -14029 14032 0
-14035 -14033 0
-14035 -14034 0
14035 14033 14034 0
-14086 -14028 0
-14086 -14035 0
14086 14028 14035 0
-14087 -14042 0
-14087 14086 0
14087 14042 -14086 0
-14088 -14049 0
-14088 14087 0
14088 14049 -14087 0
-14089 -14056 0
-14089 14088 0
14089 14056 -14088 0
-14090 -14063 0
-14090 14089 0
14090 14063 -14089 0
-14091 -14070 0
-14091 14090 0
14091 14070 -14090 0
-14092 -14077 0
-14092 14091 0
14092 14077 -14091 0
-14093 -14084 0
-14093 14092 0
14093 14084 -14092 0
-14238 -31 0
-14238 3033 0
14238 31 -3033 0
-14233 -30 0
-14233 3032 0
14233 30 -3032 0
-14228 -29 0
-14228 3031 0
14228 29 -3031 0
-14223 -28 0
-14223 3030 0
14223 28 -3030 0
-14218 -27 0
-14218 3029 0
14218 27 -3029 0
-14213 -26 0
-14213 3028 0
14213 26 -3028 0
-14208 -25 0
-14208 3027 0
14208 25 -3027 0
-14203 -24 0
-14203 3026 0
14203 24 -3026 0
-14198 -23 0
-14198 3025 0
14198 23 -3025 0
-14193 -22 0
-14193 3024 0
14193 22 -3024 0
-14188 -21 0
-14188 3023 0
14188 21 -3023 0
-14183 -20 0
-14183 3022 0
14183 20 -3022 0
-14178 -19 0
-14178 3021 0
14178 19 -3021 0
-14173 -18 0
-14173 3020 0
14173 18 -3020 0
-14168 -17 0
-14168 3019 0
14168 17 -3019 0
-14163 -16 0
-14163 3018 0
14163 16 -3018 0
-14158 -15 0
-14158 3017 0
14158 15 -3017 0
-14153 -14 0
-14153 3016 0
14153 14 -3016 0
-14148 -13 0
-14148 3015 0
14148 13 -3015 0
-14143 -12 0
-14143 3014 0
14143 12 -3014 0
-14138 -11 0
-14138 3013 0
14138 11 -3013 0
-14133 -10 0
-14133 3012 0
14133 10 -3012 0
-14128 -9 0
-14128 3011 0
14128 9 -3011 0
-14123 -8 0
-14123 3010 0
14123 8 -3010 0
-14118 -7 0
-14118 3009 0
14118 7 -3009 0
-14113 -6 0
-14113 3008 0
14113 6 -3008 0
-14108 -5 0
-14108 3007 0
14108 5 -3007 0
-14103 -4 0
-14103 3006 0
14103 4 -3006 0
-14098 -3 0
-14098 3005 0
14098 3 -3005 0
-14094 -2 0
-14094 3004 0
14094 2 -3004 0
-14095 2 0
-14095 -3004 0
14095 -2 3004 0
-14096 -14094 0
-14096 -14095 0
14096 14094 14095 0
-14097 -14094 0
-14097 -14096 0
14097 14094 14096 0
-14099 3 0
-14099 -3005 0
14099 -3 3005 0
-14100 -14098 0
-14100 -14099 0
14100 14098 14099 0
-14101 -14097 0
-14101 14100 0
14101 14097 -14100 0
-14102 -14098 0
-14102 -14101 0
14102 14098 14101 0
-14104 4 0
-14104 -3006 0
14104 -4 3006 0
-14105 -14103 0
-14105 -14104 0
14105 14103 14104 0
-14106 -14102 0
-14106 14105 0
14106 14102 -14105 0
-14107 -14103 0
-14107 -14106 0
14107 14103 14106 0
-14109 5 0
-14109 -3007 0
14109 -5 3007 0
-14110 -14108 0
-14110 -14109 0
14110 14108 14109 0
-14111 -14107 0
-14111 14110 0
14111 14107 -14110 0
-14112 -14108 0
-14112 -14111 0
14112 14108 14111 0
-14114 6 0
-14114 -3008 0
14114 -6 3008 0
-14115 -14113 0
-14115 -14114 0
14115 14113 14114 0
-14116 -14112 0
-14116 14115 0
14116 14112 -14115 0
-14117 -14113 0
-14117 -14116 0
14117 14113 14116 0
-14119 7 0
-14119 -3009 0
14119 -7 3009 0
-14120 -14118 0
-14120 -14119 0
14120 14118 14119 0
-14121 -14117 0
-14121 14120 0
14121 14117 -14120 0
-14122 -14118 0
-14122 -14121 0
14122 14118 14121 0
-14124 8 0
-14124 -3010 0
14124 -8 3010 0
-14125 -14123 0
-14125 -14124 0
14125 14123 14124 0
-14126 -14122 0
-14126 14125 0
14126 14122 -14125 0
-14127 -14123 0
-14127 -14126 0
14127 14123 14126 0
-14129 9 0
-14129 -3011 0
14129 -9 3011 0
-14130 -14128 0
-14130 -14129 0
14130 14128 14129 0
-14131 -14127 0
-14131 14130 0
14131 14127 -14130 0
-14132 -14128 0
-14132 -14131 0
14132 14128 14131 0
-14134 10 0
-14134 -3012 0
14134 -10 3012 0
-14135 -14133 0
-14135 -14134 0
14135 14133 14134 0
-14136 -14132 0
-14136 14135 0
14136 14132 -14135 0
-14137 -14133 0
-14137 -14136 0
14137 14133 14136 0
-14139 11 0
-14139 -3013 0
14139 -11 3013 0
-14140 -14138 0
-14140 -14139 0
14140 14138 14139 0
-14141 -14137 0
-14141 14140 0
14141 14137 -14140 0
-14142 -14138 0
-14142 -14141 0
14142 14138 14141 0
-14144 12 0
-14144 -3014 0
14144 -12 3014 0
-14145 -14143 0
-14145 -14144 0
14145 14143 14144 0
-14146 -14142 0
-14146 14145 0
14146 14142 -14145 0
-14147 -14143 0
-14147 -14146 0
14147 14143 14146 0
-14149 13 0
-14149 -3015 0
14149 -13 3015 0
-14150 -14148 0
-14150 -14149 0
14150 14148 14149 0
-14151 -14147 0
-14151 14150 0
14151 14147 -14150 0
-14152 -14148 0
-14152 -14151 0
14152 14148 14151 0
-14154 14 0
-14154 -3016 0
14154 -14 3016 0
-14155 -14153 0
-14155 -14154 0
14155 14153 14154 0
-14156 -14152 0
-14156 14155 0
14156 14152 -14155 0
-14157 -14153 0
-14157 -14156 0
14157 14153 14156 0
-14159 15 0
-14159 -3017 0
14159 -15 3017 0
-14160 -14158 0
-14160 -14159 0
14160 14158 14159 0
-14161 -14157 0
-14161 14160 0
14161 14157 -14160 0
-14162 -14158 0
-14162 -14161 0
14162 14158 14161 0
-14164 16 0
-14164 -3018 0
14164 -16 3018 0
-14165 -14163 0
-14165 -14164 0
14165 14163 14164 0
-14166 -14162 0
-14166 14165 0
14166 14162 -14165 0
-14167 -14163 0
-14167 -14166 0
14167 14163 14166 0
-14169 17 0
-14169 -3019 0
14169 -17 3019 0
-14170 -14168 0
-14170 -14169 0
14170 14168 14169 0
-14171 -14167 0
-14171 14170 0
14171 14167 -14170 0
-14172 -14168 0
-14172 -14171 0
14172 14168 14171 0
-14174 18 0
-14174 -3020 0
14174 -18 3020 0
-14175 -14173 0
-14175 -14174 0
14175 14173 14174 0
-14176 -14172 0
-14176 14175 0
14176 14172 -14175 0
-14177 -14173 0
-14177 -14176 0
14177 14173 14176 0
-14179 19 0
-14179 -3021 0
14179 -19 3021 0
-14180 -14178 0
-14180 -14179 0
14180 14178 14179 0
-14181 -14177 0
-14181 14180 0
14181 14177 -14180 0
-14182 -14178 0
-14182 -14181 0
14182 14178 14181 0
-14184 20 0
-14184 -3022 0
14184 -20 3022 0
-14185 -14183 0
-14185 -14184 0
14185 14183 14184 0
-14186 -14182 0
-14186 14185 0
14186 14182 -14185 0
-14187 -14183 0
-14187 -14186 0
14187 14183 14186 0
-14189 21 0
-14189 -3023 0
14189 -21 3023 0
-14190 -14188 0
-14190 -14189 0
14190 14188 14189 0
-14191 -14187 0
-14191 14190 0
14191 14187 -14190 0
-14192 -14188 0
-14192 -14191 0
14192 14188 14191 0
-14194 22 0
-14194 -3024 0
14194 -22 3024 0
-14195 -14193 0
-14195 -14194 0
14195 14193 14194 0
-14196 -14192 0
-14196 14195 0
14196 14192 -14195 0
-14197 -14193 0
-14197 -14196 0
14197 14193 14196 0
-14199 23 0
-14199 -3025 0
14199 -23 3025 0
-14200 -14198 0
-14200 -14199 0
14200 14198 14199 0
-14201 -14197 0
-14201 14200 0
14201 14197 -14200 0
-14202 -14198 0
-14202 -14201 0
14202 14198 14201 0
-14204 24 0
-14204 -3026 0
14204 -24 3026 0
-14205 -14203 0
-14205 -14204 0
14205 14203 14204 0
-14206 -14202 0
-14206 14205 0
14206 14202 -14205 0
-14207 -14203 0
-14207 -14206 0
14207 14203 14206 0
-14209 25 0
-14209 -3027 0
14209 -25 3027 0
-14210 -14208 0
-14210 -14209 0
14210 14208 14209 0
-14211 -14207 0
-14211 14210 0
14211 14207 -14210 0
-14212 -14208 0
-14212 -14211 0
14212 14208 14211 0
-14214 26 0
-14214 -3028 0
14214 -26 3028 0
-14215 -14213 0
-14215 -14214 0
14215 14213 14214 0
-14216 -14212 0
-14216 14215 0
14216 14212 -14215 0
-14217 -14213 0
-14217 -14216 0
14217 14213 14216 0
-14219 27 0
-14219 -3029 0
14219 -27 3029 0
-14220 -14218 0
-14220 -14219 0
14220 14218 14219 0
-14221 -14217 0
-14221 14220 0
14221 14217 -14220 0
-14222 -14218 0
-14222 -14221 0
14222 14218 14221 0
-14224 28 0
-14224 -3030 0
14224 -28 3030 0
-14225 -14223 0
-14225 -14224 0
14225 14223 14224 0
-14226 -14222 0
-14226 14225 0
14226 14222 -14225 0
-14227 -14223 0
-14227 -14226 0
14227 14223 14226 0
-14229 29 0
-14229 -3031 0
14229 -29 3031 0
-14230 -14228 0
-14230 -14229 0
14230 14228 14229 0
-14231 -14227 0
-14231 14230 0
14231 14227 -14230 0
-14232 -14228 0
-14232 -14231 0
14232 14228 14231 0
-14234 30 0
-14234 -3032 0
14234 -30 3032 0
-14235 -14233 0
-14235 -14234 0
14235 14233 14234 0
-14236 -14232 0
-14236 14235 0
14236 14232 -14235 0
-14237 -14233 0
-14237 -14236 0
14237 14233 14236 0
-14239 31 0
-14239 -3033 0
14239 -31 3033 0
-14240 -14238 0
-14240 -14239 0
14240 14238 14239 0
-14241 -14237 0
-14241 14240 0
14241 14237 -14240 0
-14242 -14238 0
-14242 -14241 0
14242 14238 14241 0
-14243 -3034 0
-14243 -14242 0
14243 3034 14242 0
-14244 -3034 0
-14244 -14243 0
14244 3034 14243 0
-14245 -3035 0
-14245 -14244 0
14245 3035 14244 0
-14246 -3035 0
-14246 -14245 0
14246 3035 14245 0
-14247 -3036 0
-14247 -14246 0
14247 3036 14246 0
-14248 -3036 0
-14248 -14247 0
14248 3036 14247 0
-14249 -3037 0
-14249 -14248 0
14249 3037 14248 0
-14250 -3037 0
-14250 -14249 0
14250 3037 14249 0
-14251 -3038 0
-14251 -14250 0
14251 3038 14250 0
-14252 -3038 0
-14252 -14251 0
14252 3038 14251 0
-14253 -3039 0
-14253 -14252 0
14253 3039 14252 0
-14254 -3039 0
-14254 -14253 0
14254 3039 14253 0
-14255 -3040 0
-14255 -14254 0
14255 3040 14254 0
-14256 -3040 0
-14256 -14255 0
14256 3040 14255 0
-14257 -3041 0
-14257 -14256 0
14257 3041 14256 0
-14258 -3041 0
-14258 -14257 0
14258 3041 14257 0
-14259 -3042 0
-14259 -14258 0
14259 3042 14258 0
-14260 -3042 0
-14260 -14259 0
14260 3042 14259 0
-14261 -3043 0
-14261 -14260 0
14261 3043 14260 0
-14262 -3043 0
-14262 -14261 0
14262 3043 14261 0
-14263 -3044 0
-14263 -14262 0
14263 3044 14262 0
-14264 -3044 0
-14264 -14263 0
14264 3044 14263 0
-14265 -3045 0
-14265 -14264 0
14265 3045 14264 0
-14266 -3045 0
-14266 -14265 0
14266 3045 14265 0
-14267 -3046 0
-14267 -14266 0
14267 3046 14266 0
-14268 -3046 0
-14268 -14267 0
14268 3046 14267 0
-14269 -3047 0
-14269 -14268 0
14269 3047 14268 0
-14270 -3047 0
-14270 -14269 0
14270 3047 14269 0
-14271 -3048 0
-14271 -14270 0
14271 3048 14270 0
-14272 -3048 0
-14272 -14271 0
14272 3048 14271 0
-14273 -3049 0
-14273 -14272 0
14273 3049 14272 0
-14274 -3049 0
-14274 -14273 0
14274 3049 14273 0
-14275 -3050 0
-14275 -14274 0
14275 3050 14274 0
-14276 -3050 0
-14276 -14275 0
14276 3050 14275 0
-14277 -3051 0
-14277 -14276 0
14277 3051 14276 0
-14278 -3051 0
-14278 -14277 0
14278 3051 14277 0
-14279 -3052 0
-14279 -14278 0
14279 3052 14278 0
-14280 -3052 0
-14280 -14279 0
14280 3052 14279 0
-14281 -3053 0
-14281 -14280 0
14281 3053 14280 0
-14282 -3053 0
-14282 -14281 0
14282 3053 14281 0
-14283 -3054 0
-14283 -14282 0
14283 3054 14282 0
-14284 -3054 0
-14284 -14283 0
14284 3054 14283 0
-14285 -3055 0
-14285 -14284 0
14285 3055 14284 0
-14286 -3055 0
-14286 -14285 0
14286 3055 14285 0
-14287 -3056 0
-14287 -14286 0
14287 3056 14286 0
-14288 -3056 0
-14288 -14287 0
14288 3056 14287 0
-14289 -3057 0
-14289 -14288 0
14289 3057 14288 0
-14290 -3057 0
-14290 -14289 0
14290 3057 14289 0
-14291 -3058 0
-14291 -14290 0
14291 3058 14290 0
-14292 -3058 0
-14292 -14291 0
14292 3058 14291 0
-14293 -3059 0
-14293 -14292 0
14293 3059 14292 0
-14294 -3059 0
-14294 -14293 0
14294 3059 14293 0
-14295 -3060 0
-14295 -14294 0
14295 3060 14294 0
-14296 -3060 0
-14296 -14295 0
14296 3060 14295 0
-14297 -3061 0
-14297 -14296 0
14297 3061 14296 0
-14298 -3061 0
-14298 -14297 0
14298 3061 14297 0
-14299 -3062 0
-14299 -14298 0
14299 3062 14298 0
-14300 -3062 0
-14300 -14299 0
14300 3062 14299 0
-14301 -3063 0
-14301 -14300 0
14301 3063 14300 0
-14302 -3063 0
-14302 -14301 0
14302 3063 14301 0
-14303 -3064 0
-14303 -14302 0
14303 3064 14302 0
-14304 -3064 0
-14304 -14303 0
14304 3064 14303 0
-14305 -3065 0
-14305 -14304 0
14305 3065 14304 0
-14306 -3065 0
-14306 -14305 0
14306 3065 14305 0
-14307 -3066 0
-14307 -14306 0
14307 3066 14306 0
-14308 -3066 0
-14308 -14307 0
14308 3066 14307 0
-14309 -3067 0
-14309 -14308 0
14309 3067 14308 0
-14310 -3067 0
-14310 -14309 0
14310 3067 14309 0
-14311 14093 0
-14311 -14310 0
14311 -14093 14310 0
-14312 14019 0
-14312 -14311 0
14312 -14019 14311 0
-14313 3006 0
-14313 4884 0
14313 -3006 -4884 0
-14314 3006 0
-14314 -14313 0
14314 -3006 14313 0
-14315 -3007 0
-14315 -14314 0
14315 3007 14314 0
-14316 3008 0
-14316 14315 0
14316 -3008 -14315 0
-14317 3008 0
-14317 -14316 0
14317 -3008 14316 0
-14318 -3009 0
-14318 -14317 0
14318 3009 14317 0
-14319 3010 0
-14319 14318 0
14319 -3010 -14318 0
-14320 3010 0
-14320 -14319 0
14320 -3010 14319 0
-14321 -3011 0
-14321 -14320 0
14321 3011 14320 0
-14322 3012 0
-14322 14321 0
14322 -3012 -14321 0
-14323 3012 0
-14323 -14322 0
14323 -3012 14322 0
-14324 -3013 0
-14324 -14323 0
14324 3013 14323 0
-14325 3014 0
-14325 14324 0
14325 -3014 -14324 0
-14326 3014 0
-14326 -14325 0
14326 -3014 14325 0
-14327 -3015 0
-14327 -14326 0
14327 3015 14326 0
-14328 3016 0
-14328 14327 0
14328 -3016 -14327 0
-14329 3016 0
-14329 -14328 0
14329 -3016 14328 0
-14330 -3017 0
-14330 -14329 0
14330 3017 14329 0
-14331 3018 0
-14331 14330 0
14331 -3018 -14330 0
-14332 3018 0
-14332 -14331 0
14332 -3018 14331 0
-14333 -3019 0
-14333 -14332 0
14333 3019 14332 0
-14334 3020 0
-14334 14333 0
14334 -3020 -14333 0
-14335 3020 0
-14335 -14334 0
14335 -3020 14334 0
-14336 -3021 0
-14336 -14335 0
14336 3021 14335 0
-14337 3022 0
-14337 14336 0
14337 -3022 -14336 0
-14338 3022 0
-14338 -14337 0
14338 -3022 14337 0
-14339 -3023 0
-14339 -14338 0
14339 3023 14338 0
-14340 3024 0
-14340 14339 0
14340 -3024 -14339 0
-14341 3024 0
-14341 -14340 0
14341 -3024 14340 0
-14342 -3025 0
-14342 -14341 0
14342 3025 14341 0
-14343 3026 0
-14343 14342 0
14343 -3026 -14342 0
-14344 3026 0
-14344 -14343 0
14344 -3026 14343 0
-14345 -3027 0
-14345 -14344 0
14345 3027 14344 0
-14346 3028 0
-14346 14345 0
14346 -3028 -14345 0
-14347 3028 0
-14347 -14346 0
14347 -3028 14346 0
-14348 -3029 0
-14348 -14347 0
14348 3029 14347 0
-14349 3030 0
-14349 14348 0
14349 -3030 -14348 0
-14350 3030 0
-14350 -14349 0
14350 -3030 14349 0
-14351 -3031 0
-14351 -14350 0
14351 3031 14350 0
-14352 3032 0
-14352 14351 0
14352 -3032 -14351 0
-14353 3032 0
-14353 -14352 0
14353 -3032 14352 0
-14354 -3033 0
-14354 -14353 0
14354 3033 14353 0
-14355 3034 0
-14355 14354 0
14355 -3034 -14354 0
-14356 3034 0
-14356 -14355 0
14356 -3034 14355 0
-14357 -3035 0
-14357 -14356 0
14357 3035 14356 0
-14358 3036 0
-14358 14357 0
14358 -3036 -14357 0
-14359 3036 0
-14359 -14358 0
14359 -3036 14358 0
-14360 -3037 0
-14360 -14359 0
14360 3037 14359 0
-14361 3038 0
-14361 14360 0
14361 -3038 -14360 0
-14362 3038 0
-14362 -14361 0
14362 -3038 14361 0
-14363 -3039 0
-14363 -14362 0
14363 3039 14362 0
-14364 3040 0
-14364 14363 0
14364 -3040 -14363 0
-14365 3040 0
-14365 -14364 0
14365 -3040 14364 0
-14366 -3041 0
-14366 -14365 0
14366 3041 14365 0
-14367 3042 0
-14367 14366 0
14367 -3042 -14366 0
-14368 3042 0
-14368 -14367 0
14368 -3042 14367 0
-14369 -3043 0
-14369 -14368 0
14369 3043 14368 0
-14370 3044 0
-14370 14369 0
14370 -3044 -14369 0
-14371 3044 0
-14371 -14370 0
14371 -3044 14370 0
-14372 -3045 0
-14372 -14371 0
14372 3045 14371 0
-14373 3046 0
-14373 14372 0
14373 -3046 -14372 0
-14374 3046 0
-14374 -14373 0
14374 -3046 14373 0
-14375 -3047 0
-14375 -14374 0
14375 3047 14374 0
-14376 3048 0
-14376 14375 0
14376 -3048 -14375 0
-14377 3048 0
-14377 -14376 0
14377 -3048 14376 0
-14378 -3049 0
-14378 -14377 0
14378 3049 14377 0
-14379 3050 0
-14379 14378 0
14379 -3050 -14378 0
-14380 3050 0
-14380 -14379 0
14380 -3050 14379 0
-14381 -3051 0
-14381 -14380 0
14381 3051 14380 0
-14382 3052 0
-14382 14381 0
14382 -3052 -14381 0
-14383 3052 0
-14383 -14382 0
14383 -3052 14382 0
-14384 -3053 0
-14384 -14383 0
14384 3053 14383 0
-14385 3054 0
-14385 14384 0
14385 -3054 -14384 0
-14386 3054 0
-14386 -14385 0
14386 -3054 14385 0
-14387 -3055 0
-14387 -14386 0
14387 3055 14386 0
-14388 3056 0
-14388 14387 0
14388 -3056 -14387 0
-14389 3056 0
-14389 -14388 0
14389 -3056 14388 0
-14390 -3057 0
-14390 -14389 0
14390 3057 14389 0
-14391 3058 0
-14391 14390 0
14391 -3058 -14390 0
-14392 3058 0
-14392 -14391 0
14392 -3058 14391 0
-14393 -3059 0
-14393 -14392 0
14393 3059 14392 0
-14394 3060 0
-14394 14393 0
14394 -3060 -14393 0
-14395 3060 0
-14395 -14394 0
14395 -3060 14394 0
-14396 -3061 0
-14396 -14395 0
14396 3061 14395 0
-14397 3062 0
-14397 14396 0
14397 -3062 -14396 0
-14398 3062 0
-14398 -14397 0
14398 -3062 14397 0
-14399 -3063 0
-14399 -14398 0
14399 3063 14398 0
-14400 3064 0
-14400 14399 0
14400 -3064 -14399 0
-14401 3064 0
-14401 -14400 0
14401 -3064 14400 0
-14402 -3065 0
-14402 -14401 0
14402 3065 14401 0
-14403 3066 0
-14403 14402 0
14403 -3066 -14402 0
-14404 3066 0
-14404 -14403 0
14404 -3066 14403 0
-14405 -3067 0
-14405 -14404 0
14405 3067 14404 0
-14406 4213 0
-14406 -14405 0
14406 -4213 14405 0
-14407 14312 0
-14407 -14406 0
14407 -14312 14406 0
-14460 4232 0
-14460 14077 0
14460 -4232 -14077 0
-14453 4231 0
-14453 14070 0
14453 -4231 -14070 0
-14446 4230 0
-14446 14063 0
14446 -4230 -14063 0
-14439 4229 0
-14439 14056 0
14439 -4229 -14056 0
-14432 4228 0
-14432 14049 0
14432 -4228 -14049 0
-14425 4227 0
-14425 14042 0
14425 -4227 -14042 0
-14418 4226 0
-14418 14035 0
14418 -4226 -14035 0
-14411 4225 0
-14411 14028 0
14411 -4225 -14028 0
-14021 -2409 0
-14021 -13634 0
14021 2409 13634 0
-14022 -14020 0
-14022 -14021 0
14022 14020 14021 0
-14408 4224 0
-14408 14022 0
14408 -4224 -14022 0
-14412 -4225 0
-14412 -14028 0
14412 4225 14028 0
-14413 -14411 0
-14413 -14412 0
14413 14411 14412 0
-14414 14408 0
-14414 14413 0
14414 -14408 -14413 0
-14417 -14411 0
-14417 -14414 0
14417 14411 14414 0
-14419 -4226 0
-14419 -14035 0
14419 4226 14035 0
-14420 -14418 0
-14420 -14419 0
14420 14418 14419 0
-14421 -14417 0
-14421 14420 0
14421 14417 -14420 0
-14424 -14418 0
-14424 -14421 0
14424 14418 14421 0
-14426 -4227 0
-14426 -14042 0
14426 4227 14042 0
-14427 -14425 0
-14427 -14426 0
14427 14425 14426 0
-14428 -14424 0
-14428 14427 0
14428 14424 -14427 0
-14431 -14425 0
-14431 -14428 0
14431 14425 14428 0
-14433 -4228 0
-14433 -14049 0
14433 4228 14049 0
-14434 -14432 0
-14434 -14433 0
14434 14432 14433 0
-14435 -14431 0
-14435 14434 0
14435 14431 -14434 0
-14438 -14432 0
-14438 -14435 0
14438 14432 14435 0
-14440 -4229 0
-14440 -14056 0
14440 4229 14056 0
-14441 -14439 0
-14441 -14440 0
14441 14439 14440 0
-14442 -14438 0
-14442 14441 0
14442 14438 -14441 0
-14445 -14439 0
-14445 -14442 0
14445 14439 14442 0
-14447 -4230 0
-14447 -14063 0
14447 4230 14063 0
-14448 -14446 0
-14448 -14447 0
14448 14446 14447 0
-14449 -14445 0
-14449 14448 0
14449 14445 -14448 0
-14452 -14446 0
-14452 -14449 0
14452 14446 14449 0
-14454 -4231 0
-14454 -14070 0
14454 4231 14070 0
-14455 -14453 0
-14455 -14454 0
14455 14453 14454 0
-14456 -14452 0
-14456 14455 0
14456 14452 -14455 0
-14459 -14453 0
-14459 -14456 0
14459 14453 14456 0
-14461 -4232 0
-14461 -14077 0
14461 4232 14077 0
-14462 -14460 0
-14462 -14461 0
14462 14460 14461 0
-14463 -14459 0
-14463 14462 0
14463 14459 -14462 0
-14466 -14460 0
-14466 -14463 0
14466 14460 14463 0
-14467 4233 0
-14467 14084 0
14467 -4233 -14084 0
-14468 -4233 0
-14468 -14084 0
14468 4233 14084 0
-14469 -14467 0
-14469 -14468 0
14469 14467 14468 0
-14470 -14466 0
-14470 14469 0
14470 14466 -14469 0
-14471 14466 0
-14471 -14469 0
14471 -14466 14469 0
-14472 -14470 0
-14472 -14471 0
14472 14470 14471 0
-14464 14459 0
-14464 -14462 0
14464 -14459 14462 0
-14465 -14463 0
-14465 -14464 0
14465 14463 14464 0
-14457 14452 0
-14457 -14455 0
14457 -14452 14455 0
-14458 -14456 0
-14458 -14457 0
14458 14456 14457 0
-14450 14445 0
-14450 -14448 0
14450 -14445 14448 0
-14451 -14449 0
-14451 -14450 0
14451 14449 14450 0
-14443 14438 0
-14443 -14441 0
14443 -14438 14441 0
-14444 -14442 0
-14444 -14443 0
14444 14442 14443 0
-14436 14431 0
-14436 -14434 0
14436 -14431 14434 0
-14437 -14435 0
-14437 -14436 0
14437 14435 14436 0
-14429 14424 0
-14429 -14427 0
14429 -14424 14427 0
-14430 -14428 0
-14430 -14429 0
14430 14428 14429 0
-14422 14417 0
-14422 -14420 0
14422 -14417 14420 0
-14423 -14421 0
-14423 -14422 0
14423 14421 14422 0
-14415 -14408 0
-14415 -14413 0
14415 14408 14413 0
-14416 -14414 0
-14416 -14415 0
14416 14414 14415 0
-14409 -4224 0
-14409 -14022 0
14409 4224 14022 0
-14410 -14408 0
-14410 -14409 0
14410 14408 14409 0
-14474 -14410 0
-14474 14416 0
14474 14410 -14416 0
-14475 14416 0
-14475 -14474 0
14475 -14416 14474 0
-14476 -14423 0
-14476 -14475 0
14476 14423 14475 0
-14477 -14430 0
-14477 14476 0
14477 14430 -14476 0
-14478 -14437 0
-14478 14477 0
14478 14437 -14477 0
-14479 -14444 0
-14479 14478 0
14479 14444 -14478 0
-14480 -14451 0
-14480 14479 0
14480 14451 -14479 0
-14481 -14458 0
-14481 14480 0
14481 14458 -14480 0
-14482 -14465 0
-14482 14481 0
14482 14465 -14481 0
-14483 -14472 0
-14483 14482 0
14483 14472 -14482 0
-14628 -31 0
-14628 4848 0
14628 31 -4848 0
-14623 -30 0
-14623 4847 0
14623 30 -4847 0
-14618 -29 0
-14618 4846 0
14618 29 -4846 0
-14613 -28 0
-14613 4845 0
14613 28 -4845 0
-14608 -27 0
-14608 4844 0
14608 27 -4844 0
-14603 -26 0
-14603 4843 0
14603 26 -4843 0
-14598 -25 0
-14598 4842 0
14598 25 -4842 0
-14593 -24 0
-14593 4841 0
14593 24 -4841 0
-14588 -23 0
-14588 4840 0
14588 23 -4840 0
-14583 -22 0
-14583 4839 0
14583 22 -4839 0
-14578 -21 0
-14578 4838 0
14578 21 -4838 0
-14573 -20 0
-14573 4837 0
14573 20 -4837 0
-14568 -19 0
-14568 4836 0
14568 19 -4836 0
-14563 -18 0
-14563 4835 0
14563 18 -4835 0
-14558 -17 0
-14558 4834 0
14558 17 -4834 0
-14553 -16 0
-14553 4833 0
14553 16 -4833 0
-14548 -15 0
-14548 4832 0
14548 15 -4832 0
-14543 -14 0
-14543 4831 0
14543 14 -4831 0
-14538 -13 0
-14538 4830 0
14538 13 -4830 0
-14533 -12 0
-14533 4829 0
14533 12 -4829 0
-14528 -11 0
-14528 4828 0
14528 11 -4828 0
-14523 -10 0
-14523 4827 0
14523 10 -4827 0
-14518 -9 0
-14518 4826 0
14518 9 -4826 0
-14513 -8 0
-14513 4825 0
14513 8 -4825 0
-14508 -7 0
-14508 4824 0
14508 7 -4824 0
-14503 -6 0
-14503 4823 0
14503 6 -4823 0
-14498 -5 0
-14498 4822 0
14498 5 -4822 0
-14493 -4 0
-14493 4821 0
14493 4 -4821 0
-14488 -3 0
-14488 4820 0
14488 3 -4820 0
-14484 -2 0
-14484 4819 0
14484 2 -4819 0
-14485 2 0
-14485 -4819 0
14485 -2 4819 0
-14486 -14484 0
-14486 -14485 0
14486 14484 14485 0
-14487 -14484 0
-14487 -14486 0
14487 14484 14486 0
-14489 3 0
-14489 -4820 0
14489 -3 4820 0
-14490 -14488 0
-14490 -14489 0
14490 14488 14489 0
-14491 -14487 0
-14491 14490 0
14491 14487 -14490 0
-14492 -14488 0
-14492 -14491 0
14492 14488 14491 0
-14494 4 0
-14494 -4821 0
14494 -4 4821 0
-14495 -14493 0
-14495 -14494 0
14495 14493 14494 0
-14496 -14492 0
-14496 14495 0
14496 14492 -14495 0
-14497 -14493 0
-14497 -14496 0
14497 14493 14496 0
-14499 5 0
-14499 -4822 0
14499 -5 4822 0
-14500 -14498 0
-14500 -14499 0
14500 14498 14499 0
-14501 -14497 0
-14501 14500 0
14501 14497 -14500 0
-14502 -14498 0
-14502 -14501 0
14502 14498 14501 0
-14504 6 0
-14504 -4823 0
14504 -6 4823 0
-14505 -14503 0
-14505 -14504 0
14505 14503 14504 0
-14506 -14502 0
-14506 14505 0
14506 14502 -14505 0
-14507 -14503 0
-14507 -14506 0
14507 14503 14506 0
-14509 7 0
-14509 -4824 0
14509 -7 4824 0
-14510 -14508 0
-14510 -14509 0
14510 14508 14509 0
-14511 -14507 0
-14511 14510 0
14511 14507 -14510 0
-14512 -14508 0
-14512 -14511 0
14512 14508 14511 0
-14514 8 0
-14514 -4825 0
14514 -8 4825 0
-14515 -14513 0
-14515 -14514 0
14515 14513 14514 0
-14516 -14512 0
-14516 14515 0
14516 14512 -14515 0
-14517 -14513 0
-14517 -14516 0
14517 14513 14516 0
-14519 9 0
-14519 -4826 0
14519 -9 4826 0
-14520 -14518 0
-14520 -14519 0
14520 14518 14519 0
-14521 -14517 0
-14521 14520 0
14521 14517 -14520 0
-14522 -14518 0
-14522 -14521 0
14522 14518 14521 0
-14524 10 0
-14524 -4827 0
14524 -10 4827 0
-14525 -14523 0
-14525 -14524 0
14525 14523 14524 0
-14526 -14522 0
-14526 14525 0
14526 14522 -14525 0
-14527 -14523 0
-14527 -14526 0
14527 14523 14526 0
-14529 11 0
-14529 -4828 0
14529 -11 4828 0
-14530 -14528 0
-14530 -14529 0
14530 14528 14529 0
-14531 -14527 0
-14531 14530 0
14531 14527 -14530 0
-14532 -14528 0
-14532 -14531 0
14532 14528 14531 0
-14534 12 0
-14534 -4829 0
14534 -12 4829 0
-14535 -14533 0
-14535 -14534 0
14535 14533 14534 0
-14536 -14532 0
-14536 14535 0
14536 14532 -14535 0
-14537 -14533 0
-14537 -14536 0
14537 14533 14536 0
-14539 13 0
-14539 -4830 0
14539 -13 4830 0
-14540 -14538 0
-14540 -14539 0
14540 14538 14539 0
-14541 -14537 0
-14541 14540 0
14541 14537 -14540 0
-14542 -14538 0
-14542 -14541 0
14542 14538 14541 0
-14544 14 0
-14544 -4831 0
14544 -14 4831 0
-14545 -14543 0
-14545 -14544 0
14545 14543 14544 0
-14546 -14542 0
-14546 14545 0
14546 14542 -14545 0
-14547 -14543 0
-14547 -14546 0
14547 14543 14546 0
-14549 15 0
-14549 -4832 0
14549 -15 4832 0
-14550 -14548 0
-14550 -14549 0
14550 14548 14549 0
-14551 -14547 0
-14551 14550 0
14551 14547 -14550 0
-14552 -14548 0
-14552 -14551 0
14552 14548 14551 0
-14554 16 0
-14554 -4833 0
14554 -16 4833 0
-14555 -14553 0
-14555 -14554 0
14555 14553 14554 0
-14556 -14552 0
-14556 14555 0
14556 14552 -14555 0
-14557 -14553 0
-14557 -14556 0
14557 14553 14556 0
-14559 17 0
-14559 -4834 0
14559 -17 4834 0
-14560 -14558 0
-14560 -14559 0
14560 14558 14559 0
-14561 -14557 0
-14561 14560 0
14561 14557 -14560 0
-14562 -14558 0
-14562 -14561 0
14562 14558 14561 0
-14564 18 0
-14564 -4835 0
14564 -18 4835 0
-14565 -14563 0
-14565 -14564 0
14565 14563 14564 0
-14566 -14562 0
-14566 14565 0
14566 14562 -14565 0
-14567 -14563 0
-14567 -14566 0
14567 14563 14566 0
-14569 19 0
-14569 -4836 0
14569 -19 4836 0
-14570 -14568 0
-14570 -14569 0
14570 14568 14569 0
-14571 -14567 0
-14571 14570 0
14571 14567 -14570 0
-14572 -14568 0
-14572 -14571 0
14572 14568 14571 0
-14574 20 0
-14574 -4837 0
14574 -20 4837 0
-14575 -14573 0
-14575 -14574 0
14575 14573 14574 0
-14576 -14572 0
-14576 14575 0
14576 14572 -14575 0
-14577 -14573 0
-14577 -14576 0
14577 14573 14576 0
-14579 21 0
-14579 -4838 0
14579 -21 4838 0
-14580 -14578 0
-14580 -14579 0
14580 14578 14579 0
-14581 -14577 0
-14581 14580 0
14581 14577 -14580 0
-14582 -14578 0
-14582 -14581 0
14582 14578 14581 0
-14584 22 0
-14584 -4839 0
14584 -22 4839 0
-14585 -14583 0
-14585 -14584 0
14585 14583 14584 0
-14586 -14582 0
-14586 14585 0
14586 14582 -14585 0
-14587 -14583 0
-14587 -14586 0
14587 14583 14586 0
-14589 23 0
-14589 -4840 0
14589 -23 4840 0
-14590 -14588 0
-14590 -14589 0
14590 14588 14589 0
-14591 -14587 0
-14591 14590 0
14591 14587 -14590 0
-14592 -14588 0
-14592 -14591 0
14592 14588 14591 0
-14594 24 0
-14594 -4841 0
14594 -24 4841 0
-14595 -14593 0
-14595 -14594 0
14595 14593 14594 0
-14596 -14592 0
-14596 14595 0
14596 14592 -14595 0
-14597 -14593 0
-14597 -14596 0
14597 14593 14596 0
-14599 25 0
-14599 -4842 0
14599 -25 4842 0
-14600 -14598 0
-14600 -14599 0
14600 14598 14599 0
-14601 -14597 0
-14601 14600 0
14601 14597 -14600 0
-14602 -14598 0
-14602 -14601 0
14602 14598 14601 0
-14604 26 0
-14604 -4843 0
14604 -26 4843 0
-14605 -14603 0
-14605 -14604 0
14605 14603 14604 0
-14606 -14602 0
-14606 14605 0
14606 14602 -14605 0
-14607 -14603 0
-14607 -14606 0
14607 14603 14606 0
-14609 27 0
-14609 -4844 0
14609 -27 4844 0
-14610 -14608 0
-14610 -14609 0
14610 14608 14609 0
-14611 -14607 0
-14611 14610 0
14611 14607 -14610 0
-14612 -14608 0
-14612 -14611 0
14612 14608 14611 0
-14614 28 0
-14614 -4845 0
14614 -28 4845 0
-14615 -14613 0
-14615 -14614 0
14615 14613 14614 0
-14616 -14612 0
-14616 14615 0
14616 14612 -14615 0
-14617 -14613 0
-14617 -14616 0
14617 14613 14616 0
-14619 29 0
-14619 -4846 0
14619 -29 4846 0
-14620 -14618 0
-14620 -14619 0
14620 14618 14619 0
-14621 -14617 0
-14621 14620 0
14621 14617 -14620 0
-14622 -14618 0
-14622 -14621 0
14622 14618 14621 0
-14624 30 0
-14624 -4847 0
14624 -30 4847 0
-14625 -14623 0
-14625 -14624 0
14625 14623 14624 0
-14626 -14622 0
-14626 14625 0
14626 14622 -14625 0
-14627 -14623 0
-14627 -14626 0
14627 14623 14626 0
-14629 31 0
-14629 -4848 0
14629 -31 4848 0
-14630 -14628 0
-14630 -14629 0
14630 14628 14629 0
-14631 -14627 0
-14631 14630 0
14631 14627 -14630 0
-14632 -14628 0
-14632 -14631 0
14632 14628 14631 0
-14633 -4849 0
-14633 -14632 0
14633 4849 14632 0
-14634 -4849 0
-14634 -14633 0
14634 4849 14633 0
-14635 -4850 0
-14635 -14634 0
14635 4850 14634 0
-14636 -4850 0
-14636 -14635 0
14636 4850 14635 0
-14637 -4851 0
-14637 -14636 0
14637 4851 14636 0
-14638 -4851 0
-14638 -14637 0
14638 4851 14637 0
-14639 -4852 0
-14639 -14638 0
14639 4852 14638 0
-14640 -4852 0
-14640 -14639 0
14640 4852 14639 0
-14641 -4853 0
-14641 -14640 0
14641 4853 14640 0
-14642 -4853 0
-14642 -14641 0
14642 4853 14641 0
-14643 -4854 0
-14643 -14642 0
14643 4854 14642 0
-14644 -4854 0
-14644 -14643 0
14644 4854 14643 0
-14645 -4855 0
-14645 -14644 0
14645 4855 14644 0
-14646 -4855 0
-14646 -14645 0
14646 4855 14645 0
-14647 -4856 0
-14647 -14646 0
14647 4856 14646 0
-14648 -4856 0
-14648 -14647 0
14648 4856 14647 0
-14649 -4857 0
-14649 -14648 0
14649 4857 14648 0
-14650 -4857 0
-14650 -14649 0
14650 4857 14649 0
-14651 -4858 0
-14651 -14650 0
14651 4858 14650 0
-14652 -4858 0
-14652 -14651 0
14652 4858 14651 0
-14653 -4859 0
-14653 -14652 0
14653 4859 14652 0
-14654 -4859 0
-14654 -14653 0
14654 4859 14653 0
-14655 -4860 0
-14655 -14654 0
14655 4860 14654 0
-14656 -4860 0
-14656 -14655 0
14656 4860 14655 0
-14657 -4861 0
-14657 -14656 0
14657 4861 14656 0
-14658 -4861 0
-14658 -14657 0
14658 4861 14657 0
-14659 -4862 0
-14659 -14658 0
14659 4862 14658 0
-14660 -4862 0
-14660 -14659 0
14660 4862 14659 0
-14661 -4863 0
-14661 -14660 0
14661 4863 14660 0
-14662 -4863 0
-14662 -14661 0
14662 4863 14661 0
-14663 -4864 0
-14663 -14662 0
14663 4864 14662 0
-14664 -4864 0
-14664 -14663 0
14664 4864 14663 0
-14665 -4865 0
-14665 -14664 0
14665 4865 14664 0
-14666 -4865 0
-14666 -14665 0
14666 4865 14665 0
-14667 -4866 0
-14667 -14666 0
14667 4866 14666 0
-14668 -4866 0
-14668 -14667 0
14668 4866 14667 0
-14669 -4867 0
-14669 -14668 0
14669 4867 14668 0
-14670 -4867 0
-14670 -14669 0
14670 4867 14669 0
-14671 -4868 0
-14671 -14670 0
14671 4868 14670 0
-14672 -4868 0
-14672 -14671 0
14672 4868 14671 0
-14673 -4869 0
-14673 -14672 0
14673 4869 14672 0
-14674 -4869 0
-14674 -14673 0
14674 4869 14673 0
-14675 -4870 0
-14675 -14674 0
14675 4870 14674 0
-14676 -4870 0
-14676 -14675 0
14676 4870 14675 0
-14677 -4871 0
-14677 -14676 0
14677 4871 14676 0
-14678 -4871 0
-14678 -14677 0
14678 4871 14677 0
-14679 -4872 0
-14679 -14678 0
14679 4872 14678 0
-14680 -4872 0
-14680 -14679 0
14680 4872 14679 0
-14681 -4873 0
-14681 -14680 0
14681 4873 14680 0
-14682 -4873 0
-14682 -14681 0
14682 4873 14681 0
-14683 -4874 0
-14683 -14682 0
14683 4874 14682 0
-14684 -4874 0
-14684 -14683 0
14684 4874 14683 0
-14685 -4875 0
-14685 -14684 0
14685 4875 14684 0
-14686 -4875 0
-14686 -14685 0
14686 4875 14685 0
-14687 -4876 0
-14687 -14686 0
14687 4876 14686 0
-14688 -4876 0
-14688 -14687 0
14688 4876 14687 0
-14689 -4877 0
-14689 -14688 0
14689 4877 14688 0
-14690 -4877 0
-14690 -14689 0
14690 4877 14689 0
-14691 -4878 0
-14691 -14690 0
14691 4878 14690 0
-14692 -4878 0
-14692 -14691 0
14692 4878 14691 0
-14693 -4879 0
-14693 -14692 0
14693 4879 14692 0
-14694 -4879 0
-14694 -14693 0
14694 4879 14693 0
-14695 -4880 0
-14695 -14694 0
14695 4880 14694 0
-14696 -4880 0
-14696 -14695 0
14696 4880 14695 0
-14697 -4881 0
-14697 -14696 0
14697 4881 14696 0
-14698 -4881 0
-14698 -14697 0
14698 4881 14697 0
-14699 -4882 0
-14699 -14698 0
14699 4882 14698 0
-14700 -4882 0
-14700 -14699 0
14700 4882 14699 0
-14701 14483 0
-14701 -14700 0
14701 -14483 14700 0
-14702 14407 0
-14702 -14701 0
14702 -14407 14701 0
-14703 4821 0
-14703 6699 0
14703 -4821 -6699 0
-14704 4821 0
-14704 -14703 0
14704 -4821 14703 0
-14705 -4822 0
-14705 -14704 0
14705 4822 14704 0
-14706 4823 0
-14706 14705 0
14706 -4823 -14705 0
-14707 4823 0
-14707 -14706 0
14707 -4823 14706 0
-14708 -4824 0
-14708 -14707 0
14708 4824 14707 0
-14709 4825 0
-14709 14708 0
14709 -4825 -14708 0
-14710 4825 0
-14710 -14709 0
14710 -4825 14709 0
-14711 -4826 0
-14711 -14710 0
14711 4826 14710 0
-14712 4827 0
-14712 14711 0
14712 -4827 -14711 0
-14713 4827 0
-14713 -14712 0
14713 -4827 14712 0
-14714 -4828 0
-14714 -14713 0
14714 4828 14713 0
-14715 4829 0
-14715 14714 0
14715 -4829 -14714 0
-14716 4829 0
-14716 -14715 0
14716 -4829 14715 0
-14717 -4830 0
-14717 -14716 0
14717 4830 14716 0
-14718 4831 0
-14718 14717 0
14718 -4831 -14717 0
-14719 4831 0
-14719 -14718 0
14719 -4831 14718 0
-14720 -4832 0
-14720 -14719 0
14720 4832 14719 0
-14721 4833 0
-14721 14720 0
14721 -4833 -14720 0
-14722 4833 0
-14722 -14721 0
14722 -4833 14721 0
-14723 -4834 0
-14723 -14722 0
14723 4834 14722 0
-14724 4835 0
-14724 14723 0
14724 -4835 -14723 0
-14725 4835 0
-14725 -14724 0
14725 -4835 14724 0
-14726 -4836 0
-14726 -14725 0
14726 4836 14725 0
-14727 4837 0
-14727 14726 0
14727 -4837 -14726 0
-14728 4837 0
-14728 -14727 0
14728 -4837 14727 0
-14729 -4838 0
-14729 -14728 0
14729 4838 14728 0
-14730 4839 0
-14730 14729 0
14730 -4839 -14729 0
-14731 4839 0
-14731 -14730 0
14731 -4839 14730 0
-14732 -4840 0
-14732 -14731 0
14732 4840 14731 0
-14733 4841 0
-14733 14732 0
14733 -4841 -14732 0
-14734 4841 0
-14734 -14733 0
14734 -4841 14733 0
-14735 -4842 0
-14735 -14734 0
14735 4842 14734 0
-14736 4843 0
-14736 14735 0
14736 -4843 -14735 0
-14737 4843 0
-14737 -14736 0
14737 -4843 14736 0
-14738 -4844 0
-14738 -14737 0
14738 4844 14737 0
-14739 4845 0
-14739 14738 0
14739 -4845 -14738 0
-14740 4845 0
-14740 -14739 0
14740 -4845 14739 0
-14741 -4846 0
-14741 -14740 0
14741 4846 14740 0
-14742 4847 0
-14742 14741 0
14742 -4847 -14741 0
-14743 4847 0
-14743 -14742 0
14743 -4847 14742 0
-14744 -4848 0
-14744 -14743 0
14744 4848 14743 0
-14745 4849 0
-14745 14744 0
14745 -4849 -14744 0
-14746 4849 0
-14746 -14745 0
14746 -4849 14745 0
-14747 -4850 0
-14747 -14746 0
14747 4850 14746 0
-14748 4851 0
-14748 14747 0
14748 -4851 -14747 0
-14749 4851 0
-14749 -14748 0
14749 -4851 14748 0
-14750 -4852 0
-14750 -14749 0
14750 4852 14749 0
-14751 4853 0
-14751 14750 0
14751 -4853 -14750 0
-14752 4853 0
-14752 -14751 0
14752 -4853 14751 0
-14753 -4854 0
-14753 -14752 0
14753 4854 14752 0
-14754 4855 0
-14754 14753 0
14754 -4855 -14753 0
-14755 4855 0
-14755 -14754 0
14755 -4855 14754 0
-14756 -4856 0
-14756 -14755 0
14756 4856 14755 0
-14757 4857 0
-14757 14756 0
14757 -4857 -14756 0
-14758 4857 0
-14758 -14757 0
14758 -4857 14757 0
-14759 -4858 0
-14759 -14758 0
14759 4858 14758 0
-14760 4859 0
-14760 14759 0
14760 -4859 -14759 0
-14761 4859 0
-14761 -14760 0
14761 -4859 14760 0
-14762 -4860 0
-14762 -14761 0
14762 4860 14761 0
-14763 4861 0
-14763 14762 0
14763 -4861 -14762 0
-14764 4861 0
-14764 -14763 0
14764 -4861 14763 0
-14765 -4862 0
-14765 -14764 0
14765 4862 14764 0
-14766 4863 0
-14766 14765 0
14766 -4863 -14765 0
-14767 4863 0
-14767 -14766 0
14767 -4863 14766 0
-14768 -4864 0
-14768 -14767 0
14768 4864 14767 0
-14769 4865 0
-14769 14768 0
14769 -4865 -14768 0
-14770 4865 0
-14770 -14769 0
14770 -4865 14769 0
-14771 -4866 0
-14771 -14770 0
14771 4866 14770 0
-14772 4867 0
-14772 14771 0
14772 -4867 -14771 0
-14773 4867 0
-14773 -14772 0
14773 -4867 14772 0
-14774 -4868 0
-14774 -14773 0
14774 4868 14773 0
-14775 4869 0
-14775 14774 0
14775 -4869 -14774 0
-14776 4869 0
-14776 -14775 0
14776 -4869 14775 0
-14777 -4870 0
-14777 -14776 0
14777 4870 14776 0
-14778 4871 0
-14778 14777 0
14778 -4871 -14777 0
-14779 4871 0
-14779 -14778 0
14779 -4871 14778 0
-14780 -4872 0
-14780 -14779 0
14780 4872 14779 0
-14781 4873 0
-14781 14780 0
14781 -4873 -14780 0
-14782 4873 0
-14782 -14781 0
14782 -4873 14781 0
-14783 -4874 0
-14783 -14782 0
14783 4874 14782 0
-14784 4875 0
-14784 14783 0
14784 -4875 -14783 0
-14785 4875 0
-14785 -14784 0
14785 -4875 14784 0
-14786 -4876 0
-14786 -14785 0
14786 4876 14785 0
-14787 4877 0
-14787 14786 0
14787 -4877 -14786 0
-14788 4877 0
-14788 -14787 0
14788 -4877 14787 0
-14789 -4878 0
-14789 -14788 0
14789 4878 14788 0
-14790 4879 0
-14790 14789 0
14790 -4879 -14789 0
-14791 4879 0
-14791 -14790 0
14791 -4879 14790 0
-14792 -4880 0
-14792 -14791 0
14792 4880 14791 0
-14793 4881 0
-14793 14792 0
14793 -4881 -14792 0
-14794 4881 0
-14794 -14793 0
14794 -4881 14793 0
-14795 -4882 0
-14795 -14794 0
14795 4882 14794 0
-14796 6028 0
-14796 -14795 0
14796 -6028 14795 0
-14797 14702 0
-14797 -14796 0
14797 -14702 14796 0
-14850 6047 0
-14850 14465 0
14850 -6047 -14465 0
-14843 6046 0
-14843 14458 0
14843 -6046 -14458 0
-14836 6045 0
-14836 14451 0
14836 -6045 -14451 0
-14829 6044 0
-14829 14444 0
14829 -6044 -14444 0
-14822 6043 0
-14822 14437 0
14822 -6043 -14437 0
-14815 6042 0
-14815 14430 0
14815 -6042 -14430 0
-14808 6041 0
-14808 14423 0
14808 -6041 -14423 0
-14801 6040 0
-14801 14416 0
14801 -6040 -14416 0
-14798 6039 0
-14798 14410 0
14798 -6039 -14410 0
-14802 -6040 0
-14802 -14416 0
14802 6040 14416 0
-14803 -14801 0
-14803 -14802 0
14803 14801 14802 0
-14804 14798 0
-14804 14803 0
14804 -14798 -14803 0
-14807 -14801 0
-14807 -14804 0
14807 14801 14804 0
-14809 -6041 0
-14809 -14423 0
14809 6041 14423 0
-14810 -14808 0
-14810 -14809 0
14810 14808 14809 0
-14811 -14807 0
-14811 14810 0
14811 14807 -14810 0
-14814 -14808 0
-14814 -14811 0
14814 14808 14811 0
-14816 -6042 0
-14816 -14430 0
14816 6042 14430 0
-14817 -14815 0
-14817 -14816 0
14817 14815 14816 0
-14818 -14814 0
-14818 14817 0
14818 14814 -14817 0
-14821 -14815 0
-14821 -14818 0
14821 14815 14818 0
-14823 -6043 0
-14823 -14437 0
14823 6043 14437 0
-14824 -14822 0
-14824 -14823 0
14824 14822 14823 0
-14825 -14821 0
-14825 14824 0
14825 14821 -14824 0
-14828 -14822 0
-14828 -14825 0
14828 14822 14825 0
-14830 -6044 0
-14830 -14444 0
14830 6044 14444 0
-14831 -14829 0
-14831 -14830 0
14831 14829 14830 0
-14832 -14828 0
-14832 14831 0
14832 14828 -14831 0
-14835 -14829 0
-14835 -14832 0
14835 14829 14832 0
-14837 -6045 0
-14837 -14451 0
14837 6045 14451 0
-14838 -14836 0
-14838 -14837 0
14838 14836 14837 0
-14839 -14835 0
-14839 14838 0
14839 14835 -14838 0
-14842 -14836 0
-14842 -14839 0
14842 14836 14839 0
-14844 -6046 0
-14844 -14458 0
14844 6046 14458 0
-14845 -14843 0
-14845 -14844 0
14845 14843 14844 0
-14846 -14842 0
-14846 14845 0
14846 14842 -14845 0
-14849 -14843 0
-14849 -14846 0
14849 14843 14846 0
-14851 -6047 0
-14851 -14465 0
14851 6047 14465 0
-14852 -14850 0
-14852 -14851 0
14852 14850 14851 0
-14853 -14849 0
-14853 14852 0
14853 14849 -14852 0
-14856 -14850 0
-14856 -14853 0
14856 14850 14853 0
-14857 6048 0
-14857 14472 0
14857 -6048 -14472 0
-14858 -6048 0
-14858 -14472 0
14858 6048 14472 0
-14859 -14857 0
-14859 -14858 0
14859 14857 14858 0
-14860 -14856 0
-14860 14859 0
14860 14856 -14859 0
-14861 14856 0
-14861 -14859 0
14861 -14856 14859 0
-14862 -14860 0
-14862 -14861 0
14862 14860 14861 0
-14854 14849 0
-14854 -14852 0
14854 -14849 14852 0
-14855 -14853 0
-14855 -14854 0
14855 14853 14854 0
-14847 14842 0
-14847 -14845 0
14847 -14842 14845 0
-14848 -14846 0
-14848 -14847 0
14848 14846 14847 0
-14840 14835 0
-14840 -14838 0
14840 -14835 14838 0
-14841 -14839 0
-14841 -14840 0
14841 14839 14840 0
-14833 14828 0
-14833 -14831 0
14833 -14828 14831 0
-14834 -14832 0
-14834 -14833 0
14834 14832 14833 0
-14826 14821 0
-14826 -14824 0
14826 -14821 14824 0
-14827 -14825 0
-14827 -14826 0
14827 14825 14826 0
-14812 14807 0
-14812 -14810 0
14812 -14807 14810 0
-14813 -14811 0
-14813 -14812 0
14813 14811 14812 0
-14819 14814 0
-14819 -14817 0
14819 -14814 14817 0
-14820 -14818 0
-14820 -14819 0
14820 14818 14819 0
-14864 -14813 0
-14864 -14820 0
14864 14813 14820 0
-14865 -14827 0
-14865 14864 0
14865 14827 -14864 0
-14866 -14834 0
-14866 14865 0
14866 14834 -14865 0
-14867 -14841 0
-14867 14866 0
14867 14841 -14866 0
-14868 -14848 0
-14868 14867 0
14868 14848 -14867 0
-14869 -14855 0
-14869 14868 0
14869 14855 -14868 0
-14870 -14862 0
-14870 14869 0
14870 14862 -14869 0
-15015 -31 0
-15015 6663 0
15015 31 -6663 0
-15010 -30 0
-15010 6662 0
15010 30 -6662 0
-15005 -29 0
-15005 6661 0
15005 29 -6661 0
-15000 -28 0
-15000 6660 0
15000 28 -6660 0
-14995 -27 0
-14995 6659 0
14995 27 -6659 0
-14990 -26 0
-14990 6658 0
14990 26 -6658 0
-14985 -25 0
-14985 6657 0
14985 25 -6657 0
-14980 -24 0
-14980 6656 0
14980 24 -6656 0
-14975 -23 0
-14975 6655 0
14975 23 -6655 0
-14970 -22 0
-14970 6654 0
14970 22 -6654 0
-14965 -21 0
-14965 6653 0
14965 21 -6653 0
-14960 -20 0
-14960 6652 0
14960 20 -6652 0
-14955 -19 0
-14955 6651 0
14955 19 -6651 0
-14950 -18 0
-14950 6650 0
14950 18 -6650 0
-14945 -17 0
-14945 6649 0
14945 17 -6649 0
-14940 -16 0
-14940 6648 0
14940 16 -6648 0
-14935 -15 0
-14935 6647 0
14935 15 -6647 0
-14930 -14 0
-14930 6646 0
14930 14 -6646 0
-14925 -13 0
-14925 6645 0
14925 13 -6645 0
-14920 -12 0
-14920 6644 0
14920 12 -6644 0
-14915 -11 0
-14915 6643 0
14915 11 -6643 0
-14910 -10 0
-14910 6642 0
14910 10 -6642 0
-14905 -9 0
-14905 6641 0
14905 9 -6641 0
-14900 -8 0
-14900 6640 0
14900 8 -6640 0
-14895 -7 0
-14895 6639 0
14895 7 -6639 0
-14890 -6 0
-14890 6638 0
14890 6 -6638 0
-14885 -5 0
-14885 6637 0
14885 5 -6637 0
-14880 -4 0
-14880 6636 0
14880 4 -6636 0
-14875 -3 0
-14875 6635 0
14875 3 -6635 0
-14871 -2 0
-14871 6634 0
14871 2 -6634 0
-14872 2 0
-14872 -6634 0
14872 -2 6634 0
-14873 -14871 0
-14873 -14872 0
14873 14871 14872 0
-14874 -14871 0
-14874 -14873 0
14874 14871 14873 0
-14876 3 0
-14876 -6635 0
14876 -3 6635 0
-14877 -14875 0
-14877 -14876 0
14877 14875 14876 0
-14878 -14874 0
-14878 14877 0
14878 14874 -14877 0
-14879 -14875 0
-14879 -14878 0
14879 14875 14878 0
-14881 4 0
-14881 -6636 0
14881 -4 6636 0
-14882 -14880 0
-14882 -14881 0
14882 14880 14881 0
-14883 -14879 0
-14883 14882 0
14883 14879 -14882 0
-14884 -14880 0
-14884 -14883 0
14884 14880 14883 0
-14886 5 0
-14886 -6637 0
14886 -5 6637 0
-14887 -14885 0
-14887 -14886 0
14887 14885 14886 0
-14888 -14884 0
-14888 14887 0
14888 14884 -14887 0
-14889 -14885 0
-14889 -14888 0
14889 14885 14888 0
-14891 6 0
-14891 -6638 0
14891 -6 6638 0
-14892 -14890 0
-14892 -14891 0
14892 14890 14891 0
-14893 -14889 0
-14893 14892 0
14893 14889 -14892 0
-14894 -14890 0
-14894 -14893 0
14894 14890 14893 0
-14896 7 0
-14896 -6639 0
14896 -7 6639 0
-14897 -14895 0
-14897 -14896 0
14897 14895 14896 0
-14898 -14894 0
-14898 14897 0
14898 14894 -14897 0
-14899 -14895 0
-14899 -14898 0
14899 14895 14898 0
-14901 8 0
-14901 -6640 0
14901 -8 6640 0
-14902 -14900 0
-14902 -14901 0
14902 14900 14901 0
-14903 -14899 0
-14903 14902 0
14903 14899 -14902 0
-14904 -14900 0
-14904 -14903 0
14904 14900 14903 0
-14906 9 0
-14906 -6641 0
14906 -9 6641 0
-14907 -14905 0
-14907 -14906 0
14907 14905 14906 0
-14908 -14904 0
-14908 14907 0
14908 14904 -14907 0
-14909 -14905 0
-14909 -14908 0
14909 14905 14908 0
-14911 10 0
-14911 -6642 0
14911 -10 6642 0
-14912 -14910 0
-14912 -14911 0
14912 14910 14911 0
-14913 -14909 0
-14913 14912 0
14913 14909 -14912 0
-14914 -14910 0
-14914 -14913 0
14914 14910 14913 0
-14916 11 0
-14916 -6643 0
14916 -11 6643 0
-14917 -14915 0
-14917 -14916 0
14917 14915 14916 0
-14918 -14914 0
-14918 14917 0
14918 14914 -14917 0
-14919 -14915 0
-14919 -14918 0
14919 14915 14918 0
-14921 12 0
-14921 -6644 0
14921 -12 6644 0
-14922 -14920 0
-14922 -14921 0
14922 14920 14921 0
-14923 -14919 0
-14923 14922 0
14923 14919 -14922 0
-14924 -14920 0
-14924 -14923 0
14924 14920 14923 0
-14926 13 0
-14926 -6645 0
14926 -13 6645 0
-14927 -14925 0
-14927 -14926 0
14927 14925 14926 0
-14928 -14924 0
-14928 14927 0
14928 14924 -14927 0
-14929 -14925 0
-14929 -14928 0
14929 14925 14928 0
-14931 14 0
-14931 -6646 0
14931 -14 6646 0
-14932 -14930 0
-14932 -14931 0
14932 14930 14931 0
-14933 -14929 0
-14933 14932 0
14933 14929 -14932 0
-14934 -14930 0
-14934 -14933 0
14934 14930 14933 0
-14936 15 0
-14936 -6647 0
14936 -15 6647 0
-14937 -14935 0
-14937 -14936 0
14937 14935 14936 0
-14938 -14934 0
-14938 14937 0
14938 14934 -14937 0
-14939 -14935 0
-14939 -14938 0
14939 14935 14938 0
-14941 16 0
-14941 -6648 0
14941 -16 6648 0
-14942 -14940 0
-14942 -14941 0
14942 14940 14941 0
-14943 -14939 0
-14943 14942 0
14943 14939 -14942 0
-14944 -14940 0
-14944 -14943 0
14944 14940 14943 0
-14946 17 0
-14946 -6649 0
14946 -17 6649 0
-14947 -14945 0
-14947 -14946 0
14947 14945 14946 0
-14948 -14944 0
-14948 14947 0
14948 14944 -14947 0
-14949 -14945 0
-14949 -14948 0
14949 14945 14948 0
-14951 18 0
-14951 -6650 0
14951 -18 6650 0
-14952 -14950 0
-14952 -14951 0
14952 14950 14951 0
-14953 -14949 0
-14953 14952 0
14953 14949 -14952 0
-14954 -14950 0
-14954 -14953 0
14954 14950 14953 0
-14956 19 0
-14956 -6651 0
14956 -19 6651 0
-14957 -14955 0
-14957 -14956 0
14957 14955 14956 0
-14958 -14954 0
-14958 14957 0
14958 14954 -14957 0
-14959 -14955 0
-14959 -14958 0
14959 14955 14958 0
-14961 20 0
-14961 -6652 0
14961 -20 6652 0
-14962 -14960 0
-14962 -14961 0
14962 14960 14961 0
-14963 -14959 0
-14963 14962 0
14963 14959 -14962 0
-14964 -14960 0
-14964 -14963 0
14964 14960 14963 0
-14966 21 0
-14966 -6653 0
14966 -21 6653 0
-14967 -14965 0
-14967 -14966 0
14967 14965 14966 0
-14968 -14964 0
-14968 14967 0
14968 14964 -14967 0
-14969 -14965 0
-14969 -14968 0
14969 14965 14968 0
-14971 22 0
-14971 -6654 0
14971 -22 6654 0
-14972 -14970 0
-14972 -14971 0
14972 14970 14971 0
-14973 -14969 0
-14973 14972 0
14973 14969 -14972 0
-14974 -14970 0
-14974 -14973 0
14974 14970 14973 0
-14976 23 0
-14976 -6655 0
14976 -23 6655 0
-14977 -14975 0
-14977 -14976 0
14977 14975 14976 0
-14978 -14974 0
-14978 14977 0
14978 14974 -14977 0
-14979 -14975 0
-14979 -14978 0
14979 14975 14978 0
-14981 24 0
-14981 -6656 0
14981 -24 6656 0
-14982 -14980 0
-14982 -14981 0
14982 14980 14981 0
-14983 -14979 0
-14983 14982 0
14983 14979 -14982 0
-14984 -14980 0
-14984 -14983 0
14984 14980 14983 0
-14986 25 0
-14986 -6657 0
14986 -25 6657 0
-14987 -14985 0
-14987 -14986 0
14987 14985 14986 0
-14988 -14984 0
-14988 14987 0
14988 14984 -14987 0
-14989 -14985 0
-14989 -14988 0
14989 14985 14988 0
-14991 26 0
-14991 -6658 0
14991 -26 6658 0
-14992 -14990 0
-14992 -14991 0
14992 14990 14991 0
-14993 -14989 0
-14993 14992 0
14993 14989 -14992 0
-14994 -14990 0
-14994 -14993 0
14994 14990 14993 0
-14996 27 0
-14996 -6659 0
14996 -27 6659 0
-14997 -14995 0
-14997 -14996 0
14997 14995 14996 0
-14998 -14994 0
-14998 14997 0
14998 14994 -14997 0
-14999 -14995 0
-14999 -14998 0
14999 14995 14998 0
-15001 28 0
-15001 -6660 0
15001 -28 6660 0
-15002 -15000 0
-15002 -15001 0
15002 15000 15001 0
-15003 -14999 0
-15003 15002 0
15003 14999 -15002 0
-15004 -15000 0
-15004 -15003 0
15004 15000 15003 0
-15006 29 0
-15006 -6661 0
15006 -29 6661 0
-15007 -15005 0
-15007 -15006 0
15007 15005 15006 0
-15008 -15004 0
-15008 15007 0
15008 15004 -15007 0
-15009 -15005 0
-15009 -15008 0
15009 15005 15008 0
-15011 30 0
-15011 -6662 0
15011 -30 6662 0
-15012 -15010 0
-15012 -15011 0
15012 15010 15011 0
-15013 -15009 0
-15013 15012 0
15013 15009 -15012 0
-15014 -15010 0
-15014 -15013 0
15014 15010 15013 0
-15016 31 0
-15016 -6663 0
15016 -31 6663 0
-15017 -15015 0
-15017 -15016 0
15017 15015 15016 0
-15018 -15014 0
-15018 15017 0
15018 15014 -15017 0
-15019 -15015 0
-15019 -15018 0
15019 15015 15018 0
-15020 -6664 0
-15020 -15019 0
15020 6664 15019 0
-15021 -6664 0
-15021 -15020 0
15021 6664 15020 0
-15022 -6665 0
-15022 -15021 0
15022 6665 15021 0
-15023 -6665 0
-15023 -15022 0
15023 6665 15022 0
-15024 -6666 0
-15024 -15023 0
15024 6666 15023 0
-15025 -6666 0
-15025 -15024 0
15025 6666 15024 0
-15026 -6667 0
-15026 -15025 0
15026 6667 15025 0
-15027 -6667 0
-15027 -15026 0
15027 6667 15026 0
-15028 -6668 0
-15028 -15027 0
15028 6668 15027 0
-15029 -6668 0
-15029 -15028 0
15029 6668 15028 0
-15030 -6669 0
-15030 -15029 0
15030 6669 15029 0
-15031 -6669 0
-15031 -15030 0
15031 6669 15030 0
-15032 -6670 0
-15032 -15031 0
15032 6670 15031 0
-15033 -6670 0
-15033 -15032 0
15033 6670 15032 0
-15034 -6671 0
-15034 -15033 0
15034 6671 15033 0
-15035 -6671 0
-15035 -15034 0
15035 6671 15034 0
-15036 -6672 0
-15036 -15035 0
15036 6672 15035 0
-15037 -6672 0
-15037 -15036 0
15037 6672 15036 0
-15038 -6673 0
-15038 -15037 0
15038 6673 15037 0
-15039 -6673 0
-15039 -15038 0
15039 6673 15038 0
-15040 -6674 0
-15040 -15039 0
15040 6674 15039 0
-15041 -6674 0
-15041 -15040 0
15041 6674 15040 0
-15042 -6675 0
-15042 -15041 0
15042 6675 15041 0
-15043 -6675 0
-15043 -15042 0
15043 6675 15042 0
-15044 -6676 0
-15044 -15043 0
15044 6676 15043 0
-15045 -6676 0
-15045 -15044 0
15045 6676 15044 0
-15046 -6677 0
-15046 -15045 0
15046 6677 15045 0
-15047 -6677 0
-15047 -15046 0
15047 6677 15046 0
-15048 -6678 0
-15048 -15047 0
15048 6678 15047 0
-15049 -6678 0
-15049 -15048 0
15049 6678 15048 0
-15050 -6679 0
-15050 -15049 0
15050 6679 15049 0
-15051 -6679 0
-15051 -15050 0
15051 6679 15050 0
-15052 -6680 0
-15052 -15051 0
15052 6680 15051 0
-15053 -6680 0
-15053 -15052 0
15053 6680 15052 0
-15054 -6681 0
-15054 -15053 0
15054 6681 15053 0
-15055 -6681 0
-15055 -15054 0
15055 6681 15054 0
-15056 -6682 0
-15056 -15055 0
15056 6682 15055 0
-15057 -6682 0
-15057 -15056 0
15057 6682 15056 0
-15058 -6683 0
-15058 -15057 0
15058 6683 15057 0
-15059 -6683 0
-15059 -15058 0
15059 6683 15058 0
-15060 -6684 0
-15060 -15059 0
15060 6684 15059 0
-15061 -6684 0
-15061 -15060 0
15061 6684 15060 0
-15062 -6685 0
-15062 -15061 0
15062 6685 15061 0
-15063 -6685 0
-15063 -15062 0
15063 6685 15062 0
-15064 -6686 0
-15064 -15063 0
15064 6686 15063 0
-15065 -6686 0
-15065 -15064 0
15065 6686 15064 0
-15066 -6687 0
-15066 -15065 0
15066 6687 15065 0
-15067 -6687 0
-15067 -15066 0
15067 6687 15066 0
-15068 -6688 0
-15068 -15067 0
15068 6688 15067 0
-15069 -6688 0
-15069 -15068 0
15069 6688 15068 0
-15070 -6689 0
-15070 -15069 0
15070 6689 15069 0
-15071 -6689 0
-15071 -15070 0
15071 6689 15070 0
-15072 -6690 0
-15072 -15071 0
15072 6690 15071 0
-15073 -6690 0
-15073 -15072 0
15073 6690 15072 0
-15074 -6691 0
-15074 -15073 0
15074 6691 15073 0
-15075 -6691 0
-15075 -15074 0
15075 6691 15074 0
-15076 -6692 0
-15076 -15075 0
15076 6692 15075 0
-15077 -6692 0
-15077 -15076 0
15077 6692 15076 0
-15078 -6693 0
-15078 -15077 0
15078 6693 15077 0
-15079 -6693 0
-15079 -15078 0
15079 6693 15078 0
-15080 -6694 0
-15080 -15079 0
15080 6694 15079 0
-15081 -6694 0
-15081 -15080 0
15081 6694 15080 0
-15082 -6695 0
-15082 -15081 0
15082 6695 15081 0
-15083 -6695 0
-15083 -15082 0
15083 6695 15082 0
-15084 -6696 0
-15084 -15083 0
15084 6696 15083 0
-15085 -6696 0
-15085 -15084 0
15085 6696 15084 0
-15086 -6697 0
-15086 -15085 0
15086 6697 15085 0
-15087 -6697 0
-15087 -15086 0
15087 6697 15086 0
-15088 14870 0
-15088 -15087 0
15088 -14870 15087 0
-15089 14797 0
-15089 -15088 0
15089 -14797 15088 0
-15090 6636 0
-15090 8514 0
15090 -6636 -8514 0
-15091 6636 0
-15091 -15090 0
15091 -6636 15090 0
-15092 -6637 0
-15092 -15091 0
15092 6637 15091 0
-15093 6638 0
-15093 15092 0
15093 -6638 -15092 0
-15094 6638 0
-15094 -15093 0
15094 -6638 15093 0
-15095 -6639 0
-15095 -15094 0
15095 6639 15094 0
-15096 6640 0
-15096 15095 0
15096 -6640 -15095 0
-15097 6640 0
-15097 -15096 0
15097 -6640 15096 0
-15098 -6641 0
-15098 -15097 0
15098 6641 15097 0
-15099 6642 0
-15099 15098 0
15099 -6642 -15098 0
-15100 6642 0
-15100 -15099 0
15100 -6642 15099 0
-15101 -6643 0
-15101 -15100 0
15101 6643 15100 0
-15102 6644 0
-15102 15101 0
15102 -6644 -15101 0
-15103 6644 0
-15103 -15102 0
15103 -6644 15102 0
-15104 -6645 0
-15104 -15103 0
15104 6645 15103 0
-15105 6646 0
-15105 15104 0
15105 -6646 -15104 0
-15106 6646 0
-15106 -15105 0
15106 -6646 15105 0
-15107 -6647 0
-15107 -15106 0
15107 6647 15106 0
-15108 6648 0
-15108 15107 0
15108 -6648 -15107 0
-15109 6648 0
-15109 -15108 0
15109 -6648 15108 0
-15110 -6649 0
-15110 -15109 0
15110 6649 15109 0
-15111 6650 0
-15111 15110 0
15111 -6650 -15110 0
-15112 6650 0
-15112 -15111 0
15112 -6650 15111 0
-15113 -6651 0
-15113 -15112 0
15113 6651 15112 0
-15114 6652 0
-15114 15113 0
15114 -6652 -15113 0
-15115 6652 0
-15115 -15114 0
15115 -6652 15114 0
-15116 -6653 0
-15116 -15115 0
15116 6653 15115 0
-15117 6654 0
-15117 15116 0
15117 -6654 -15116 0
-15118 6654 0
-15118 -15117 0
15118 -6654 15117 0
-15119 -6655 0
-15119 -15118 0
15119 6655 15118 0
-15120 6656 0
-15120 15119 0
15120 -6656 -15119 0
-15121 6656 0
-15121 -15120 0
15121 -6656 15120 0
-15122 -6657 0
-15122 -15121 0
15122 6657 15121 0
-15123 6658 0
-15123 15122 0
15123 -6658 -15122 0
-15124 6658 0
-15124 -15123 0
15124 -6658 15123 0
-15125 -6659 0
-15125 -15124 0
15125 6659 15124 0
-15126 6660 0
-15126 15125 0
15126 -6660 -15125 0
-15127 6660 0
-15127 -15126 0
15127 -6660 15126 0
-15128 -6661 0
-15128 -15127 0
15128 6661 15127 0
-15129 6662 0
-15129 15128 0
15129 -6662 -15128 0
-15130 6662 0
-15130 -15129 0
15130 -6662 15129 0
-15131 -6663 0
-15131 -15130 0
15131 6663 15130 0
-15132 6664 0
-15132 15131 0
15132 -6664 -15131 0
-15133 6664 0
-15133 -15132 0
15133 -6664 15132 0
-15134 -6665 0
-15134 -15133 0
15134 6665 15133 0
-15135 6666 0
-15135 15134 0
15135 -6666 -15134 0
-15136 6666 0
-15136 -15135 0
15136 -6666 15135 0
-15137 -6667 0
-15137 -15136 0
15137 6667 15136 0
-15138 6668 0
-15138 15137 0
15138 -6668 -15137 0
-15139 6668 0
-15139 -15138 0
15139 -6668 15138 0
-15140 -6669 0
-15140 -15139 0
15140 6669 15139 0
-15141 6670 0
-15141 15140 0
15141 -6670 -15140 0
-15142 6670 0
-15142 -15141 0
15142 -6670 15141 0
-15143 -6671 0
-15143 -15142 0
15143 6671 15142 0
-15144 6672 0
-15144 15143 0
15144 -6672 -15143 0
-15145 6672 0
-15145 -15144 0
15145 -6672 15144 0
-15146 -6673 0
-15146 -15145 0
15146 6673 15145 0
-15147 6674 0
-15147 15146 0
15147 -6674 -15146 0
-15148 6674 0
-15148 -15147 0
15148 -6674 15147 0
-15149 -6675 0
-15149 -15148 0
15149 6675 15148 0
-15150 6676 0
-15150 15149 0
15150 -6676 -15149 0
-15151 6676 0
-15151 -15150 0
15151 -6676 15150 0
-15152 -6677 0
-15152 -15151 0
15152 6677 15151 0
-15153 6678 0
-15153 15152 0
15153 -6678 -15152 0
-15154 6678 0
-15154 -15153 0
15154 -6678 15153 0
-15155 -6679 0
-15155 -15154 0
15155 6679 15154 0
-15156 6680 0
-15156 15155 0
15156 -6680 -15155 0
-15157 6680 0
-15157 -15156 0
15157 -6680 15156 0
-15158 -6681 0
-15158 -15157 0
15158 6681 15157 0
-15159 6682 0
-15159 15158 0
15159 -6682 -15158 0
-15160 6682 0
-15160 -15159 0
15160 -6682 15159 0
-15161 -6683 0
-15161 -15160 0
15161 6683 15160 0
-15162 6684 0
-15162 15161 0
15162 -6684 -15161 0
-15163 6684 0
-15163 -15162 0
15163 -6684 15162 0
-15164 -6685 0
-15164 -15163 0
15164 6685 15163 0
-15165 6686 0
-15165 15164 0
15165 -6686 -15164 0
-15166 6686 0
-15166 -15165 0
15166 -6686 15165 0
-15167 -6687 0
-15167 -15166 0
15167 6687 15166 0
-15168 6688 0
-15168 15167 0
15168 -6688 -15167 0
-15169 6688 0
-15169 -15168 0
15169 -6688 15168 0
-15170 -6689 0
-15170 -15169 0
15170 6689 15169 0
-15171 6690 0
-15171 15170 0
15171 -6690 -15170 0
-15172 6690 0
-15172 -15171 0
15172 -6690 15171 0
-15173 -6691 0
-15173 -15172 0
15173 6691 15172 0
-15174 6692 0
-15174 15173 0
15174 -6692 -15173 0
-15175 6692 0
-15175 -15174 0
15175 -6692 15174 0
-15176 -6693 0
-15176 -15175 0
15176 6693 15175 0
-15177 6694 0
-15177 15176 0
15177 -6694 -15176 0
-15178 6694 0
-15178 -15177 0
15178 -6694 15177 0
-15179 -6695 0
-15179 -15178 0
15179 6695 15178 0
-15180 6696 0
-15180 15179 0
15180 -6696 -15179 0
-15181 6696 0
-15181 -15180 0
15181 -6696 15180 0
-15182 -6697 0
-15182 -15181 0
15182 6697 15181 0
-15183 7843 0
-15183 -15182 0
15183 -7843 15182 0
-15184 15089 0
-15184 -15183 0
15184 -15089 15183 0
-15237 7862 0
-15237 14855 0
15237 -7862 -14855 0
-15230 7861 0
-15230 14848 0
15230 -7861 -14848 0
-15223 7860 0
-15223 14841 0
15223 -7860 -14841 0
-15216 7859 0
-15216 14834 0
15216 -7859 -14834 0
-15209 7858 0
-15209 14827 0
15209 -7858 -14827 0
-15202 7857 0
-15202 14820 0
15202 -7857 -14820 0
-15195 7856 0
-15195 14813 0
15195 -7856 -14813 0
-14805 -14798 0
-14805 -14803 0
14805 14798 14803 0
-14806 -14804 0
-14806 -14805 0
14806 14804 14805 0
-15188 7855 0
-15188 14806 0
15188 -7855 -14806 0
-14799 -6039 0
-14799 -14410 0
14799 6039 14410 0
-14800 -14798 0
-14800 -14799 0
14800 14798 14799 0
-15185 7854 0
-15185 14800 0
15185 -7854 -14800 0
-15189 -7855 0
-15189 -14806 0
15189 7855 14806 0
-15190 -15188 0
-15190 -15189 0
15190 15188 15189 0
-15191 15185 0
-15191 15190 0
15191 -15185 -15190 0
-15194 -15188 0
-15194 -15191 0
15194 15188 15191 0
-15196 -7856 0
-15196 -14813 0
15196 7856 14813 0
-15197 -15195 0
-15197 -15196 0
15197 15195 15196 0
-15198 -15194 0
-15198 15197 0
15198 15194 -15197 0
-15201 -15195 0
-15201 -15198 0
15201 15195 15198 0
-15203 -7857 0
-15203 -14820 0
15203 7857 14820 0
-15204 -15202 0
-15204 -15203 0
15204 15202 15203 0
-15205 -15201 0
-15205 15204 0
15205 15201 -15204 0
-15208 -15202 0
-15208 -15205 0
15208 15202 15205 0
-15210 -7858 0
-15210 -14827 0
15210 7858 14827 0
-15211 -15209 0
-15211 -15210 0
15211 15209 15210 0
-15212 -15208 0
-15212 15211 0
15212 15208 -15211 0
-15215 -15209 0
-15215 -15212 0
15215 15209 15212 0
-15217 -7859 0
-15217 -14834 0
15217 7859 14834 0
-15218 -15216 0
-15218 -15217 0
15218 15216 15217 0
-15219 -15215 0
-15219 15218 0
15219 15215 -15218 0
-15222 -15216 0
-15222 -15219 0
15222 15216 15219 0
-15224 -7860 0
-15224 -14841 0
15224 7860 14841 0
-15225 -15223 0
-15225 -15224 0
15225 15223 15224 0
-15226 -15222 0
-15226 15225 0
15226 15222 -15225 0
-15229 -15223 0
-15229 -15226 0
15229 15223 15226 0
-15231 -7861 0
-15231 -14848 0
15231 7861 14848 0
-15232 -15230 0
-15232 -15231 0
15232 15230 15231 0
-15233 -15229 0
-15233 15232 0
15233 15229 -15232 0
-15236 -15230 0
-15236 -15233 0
15236 15230 15233 0
-15238 -7862 0
-15238 -14855 0
15238 7862 14855 0
-15239 -15237 0
-15239 -15238 0
15239 15237 15238 0
-15240 -15236 0
-15240 15239 0
15240 15236 -15239 0
-15243 -15237 0
-15243 -15240 0
15243 15237 15240 0
-15244 7863 0
-15244 14862 0
15244 -7863 -14862 0
-15245 -7863 0
-15245 -14862 0
15245 7863 14862 0
-15246 -15244 0
-15246 -15245 0
15246 15244 15245 0
-15247 -15243 0
-15247 15246 0
15247 15243 -15246 0
-15248 15243 0
-15248 -15246 0
15248 -15243 15246 0
-15249 -15247 0
-15249 -15248 0
15249 15247 15248 0
-15241 15236 0
-15241 -15239 0
15241 -15236 15239 0
-15242 -15240 0
-15242 -15241 0
15242 15240 15241 0
-15234 15229 0
-15234 -15232 0
15234 -15229 15232 0
-15235 -15233 0
-15235 -15234 0
15235 15233 15234 0
-15227 15222 0
-15227 -15225 0
15227 -15222 15225 0
-15228 -15226 0
-15228 -15227 0
15228 15226 15227 0
-15220 15215 0
-15220 -15218 0
15220 -15215 15218 0
-15221 -15219 0
-15221 -15220 0
15221 15219 15220 0
-15213 15208 0
-15213 -15211 0
15213 -15208 15211 0
-15214 -15212 0
-15214 -15213 0
15214 15212 15213 0
-15199 15194 0
-15199 -15197 0
15199 -15194 15197 0
-15200 -15198 0
-15200 -15199 0
15200 15198 15199 0
-15206 15201 0
-15206 -15204 0
15206 -15201 15204 0
-15207 -15205 0
-15207 -15206 0
15207 15205 15206 0
-15251 -15200 0
-15251 -15207 0
15251 15200 15207 0
-15252 -15214 0
-15252 15251 0
15252 15214 -15251 0
-15253 -15221 0
-15253 15252 0
15253 15221 -15252 0
-15254 -15228 0
-15254 15253 0
15254 15228 -15253 0
-15255 -15235 0
-15255 15254 0
15255 15235 -15254 0
-15256 -15242 0
-15256 15255 0
15256 15242 -15255 0
-15257 -15249 0
-15257 15256 0
15257 15249 -15256 0
-15402 -31 0
-15402 8478 0
15402 31 -8478 0
-15397 -30 0
-15397 8477 0
15397 30 -8477 0
-15392 -29 0
-15392 8476 0
15392 29 -8476 0
-15387 -28 0
-15387 8475 0
15387 28 -8475 0
-15382 -27 0
-15382 8474 0
15382 27 -8474 0
-15377 -26 0
-15377 8473 0
15377 26 -8473 0
-15372 -25 0
-15372 8472 0
15372 25 -8472 0
-15367 -24 0
-15367 8471 0
15367 24 -8471 0
-15362 -23 0
-15362 8470 0
15362 23 -8470 0
-15357 -22 0
-15357 8469 0
15357 22 -8469 0
-15352 -21 0
-15352 8468 0
15352 21 -8468 0
-15347 -20 0
-15347 8467 0
15347 20 -8467 0
-15342 -19 0
-15342 8466 0
15342 19 -8466 0
-15337 -18 0
-15337 8465 0
15337 18 -8465 0
-15332 -17 0
-15332 8464 0
15332 17 -8464 0
-15327 -16 0
-15327 8463 0
15327 16 -8463 0
-15322 -15 0
-15322 8462 0
15322 15 -8462 0
-15317 -14 0
-15317 8461 0
15317 14 -8461 0
-15312 -13 0
-15312 8460 0
15312 13 -8460 0
-15307 -12 0
-15307 8459 0
15307 12 -8459 0
-15302 -11 0
-15302 8458 0
15302 11 -8458 0
-15297 -10 0
-15297 8457 0
15297 10 -8457 0
-15292 -9 0
-15292 8456 0
15292 9 -8456 0
-15287 -8 0
-15287 8455 0
15287 8 -8455 0
-15282 -7 0
-15282 8454 0
15282 7 -8454 0
-15277 -6 0
-15277 8453 0
15277 6 -8453 0
-15272 -5 0
-15272 8452 0
15272 5 -8452 0
-15267 -4 0
-15267 8451 0
15267 4 -8451 0
-15262 -3 0
-15262 8450 0
15262 3 -8450 0
-15258 -2 0
-15258 8449 0
15258 2 -8449 0
-15259 2 0
-15259 -8449 0
15259 -2 8449 0
-15260 -15258 0
-15260 -15259 0
15260 15258 15259 0
-15261 -15258 0
-15261 -15260 0
15261 15258 15260 0
-15263 3 0
-15263 -8450 0
15263 -3 8450 0
-15264 -15262 0
-15264 -15263 0
15264 15262 15263 0
-15265 -15261 0
-15265 15264 0
15265 15261 -15264 0
-15266 -15262 0
-15266 -15265 0
15266 15262 15265 0
-15268 4 0
-15268 -8451 0
15268 -4 8451 0
-15269 -15267 0
-15269 -15268 0
15269 15267 15268 0
-15270 -15266 0
-15270 15269 0
15270 15266 -15269 0
-15271 -15267 0
-15271 -15270 0
15271 15267 15270 0
-15273 5 0
-15273 -8452 0
15273 -5 8452 0
-15274 -15272 0
-15274 -15273 0
15274 15272 15273 0
-15275 -15271 0
-15275 15274 0
15275 15271 -15274 0
-15276 -15272 0
-15276 -15275 0
15276 15272 15275 0
-15278 6 0
-15278 -8453 0
15278 -6 8453 0
-15279 -15277 0
-15279 -15278 0
15279 15277 15278 0
-15280 -15276 0
-15280 15279 0
15280 15276 -15279 0
-15281 -15277 0
-15281 -15280 0
15281 15277 15280 0
-15283 7 0
-15283 -8454 0
15283 -7 8454 0
-15284 -15282 0
-15284 -15283 0
15284 15282 15283 0
-15285 -15281 0
-15285 15284 0
15285 15281 -15284 0
-15286 -15282 0
-15286 -15285 0
15286 15282 15285 0
-15288 8 0
-15288 -8455 0
15288 -8 8455 0
-15289 -15287 0
-15289 -15288 0
15289 15287 15288 0
-15290 -15286 0
-15290 15289 0
15290 15286 -15289 0
-15291 -15287 0
-15291 -15290 0
15291 15287 15290 0
-15293 9 0
-15293 -8456 0
15293 -9 8456 0
-15294 -15292 0
-15294 -15293 0
15294 15292 15293 0
-15295 -15291 0
-15295 15294 0
15295 15291 -15294 0
-15296 -15292 0
-15296 -15295 0
15296 15292 15295 0
-15298 10 0
-15298 -8457 0
15298 -10 8457 0
-15299 -15297 0
-15299 -15298 0
15299 15297 15298 0
-15300 -15296 0
-15300 15299 0
15300 15296 -15299 0
-15301 -15297 0
-15301 -15300 0
15301 15297 15300 0
-15303 11 0
-15303 -8458 0
15303 -11 8458 0
-15304 -15302 0
-15304 -15303 0
15304 15302 15303 0
-15305 -15301 0
-15305 15304 0
15305 15301 -15304 0
-15306 -15302 0
-15306 -15305 0
15306 15302 15305 0
-15308 12 0
-15308 -8459 0
15308 -12 8459 0
-15309 -15307 0
-15309 -15308 0
15309 15307 15308 0
-15310 -15306 0
-15310 15309 0
15310 15306 -15309 0
-15311 -15307 0
-15311 -15310 0
15311 15307 15310 0
-15313 13 0
-15313 -8460 0
15313 -13 8460 0
-15314 -15312 0
-15314 -15313 0
15314 15312 15313 0
-15315 -15311 0
-15315 15314 0
15315 15311 -15314 0
-15316 -15312 0
-15316 -15315 0
15316 15312 15315 0
-15318 14 0
-15318 -8461 0
15318 -14 8461 0
-15319 -15317 0
-15319 -15318 0
15319 15317 15318 0
-15320 -15316 0
-15320 15319 0
15320 15316 -15319 0
-15321 -15317 0
-15321 -15320 0
15321 15317 15320 0
-15323 15 0
-15323 -8462 0
15323 -15 8462 0
-15324 -15322 0
-15324 -15323 0
15324 15322 15323 0
-15325 -15321 0
-15325 15324 0
15325 15321 -15324 0
-15326 -15322 0
-15326 -15325 0
15326 15322 15325 0
-15328 16 0
-15328 -8463 0
15328 -16 8463 0
-15329 -15327 0
-15329 -15328 0
15329 15327 15328 0
-15330 -15326 0
-15330 15329 0
15330 15326 -15329 0
-15331 -15327 0
-15331 -15330 0
15331 15327 15330 0
-15333 17 0
-15333 -8464 0
15333 -17 8464 0
-15334 -15332 0
-15334 -15333 0
15334 15332 15333 0
-15335 -15331 0
-15335 15334 0
15335 15331 -15334 0
-15336 -15332 0
-15336 -15335 0
15336 15332 15335 0
-15338 18 0
-15338 -8465 0
15338 -18 8465 0
-15339 -15337 0
-15339 -15338 0
15339 15337 15338 0
-15340 -15336 0
-15340 15339 0
15340 15336 -15339 0
-15341 -15337 0
-15341 -15340 0
15341 15337 15340 0
-15343 19 0
-15343 -8466 0
15343 -19 8466 0
-15344 -15342 0
-15344 -15343 0
15344 15342 15343 0
-15345 -15341 0
-15345 15344 0
15345 15341 -15344 0
-15346 -15342 0
-15346 -15345 0
15346 15342 15345 0
-15348 20 0
-15348 -8467 0
15348 -20 8467 0
-15349 -15347 0
-15349 -15348 0
15349 15347 15348 0
-15350 -15346 0
-15350 15349 0
15350 15346 -15349 0
-15351 -15347 0
-15351 -15350 0
15351 15347 15350 0
-15353 21 0
-15353 -8468 0
15353 -21 8468 0
-15354 -15352 0
-15354 -15353 0
15354 15352 15353 0
-15355 -15351 0
-15355 15354 0
15355 15351 -15354 0
-15356 -15352 0
-15356 -15355 0
15356 15352 15355 0
-15358 22 0
-15358 -8469 0
15358 -22 8469 0
-15359 -15357 0
-15359 -15358 0
15359 15357 15358 0
-15360 -15356 0
-15360 15359 0
15360 15356 -15359 0
-15361 -15357 0
-15361 -15360 0
15361 15357 15360 0
-15363 23 0
-15363 -8470 0
15363 -23 8470 0
-15364 -15362 0
-15364 -15363 0
15364 15362 15363 0
-15365 -15361 0
-15365 15364 0
15365 15361 -15364 0
-15366 -15362 0
-15366 -15365 0
15366 15362 15365 0
-15368 24 0
-15368 -8471 0
15368 -24 8471 0
-15369 -15367 0
-15369 -15368 0
15369 15367 15368 0
-15370 -15366 0
-15370 15369 0
15370 15366 -15369 0
-15371 -15367 0
-15371 -15370 0
15371 15367 15370 0
-15373 25 0
-15373 -8472 0
15373 -25 8472 0
-15374 -15372 0
-15374 -15373 0
15374 15372 15373 0
-15375 -15371 0
-15375 15374 0
15375 15371 -15374 0
-15376 -15372 0
-15376 -15375 0
15376 15372 15375 0
-15378 26 0
-15378 -8473 0
15378 -26 8473 0
-15379 -15377 0
-15379 -15378 0
15379 15377 15378 0
-15380 -15376 0
-15380 15379 0
15380 15376 -15379 0
-15381 -15377 0
-15381 -15380 0
15381 15377 15380 0
-15383 27 0
-15383 -8474 0
15383 -27 8474 0
-15384 -15382 0
-15384 -15383 0
15384 15382 15383 0
-15385 -15381 0
-15385 15384 0
15385 15381 -15384 0
-15386 -15382 0
-15386 -15385 0
15386 15382 15385 0
-15388 28 0
-15388 -8475 0
15388 -28 8475 0
-15389 -15387 0
-15389 -15388 0
15389 15387 15388 0
-15390 -15386 0
-15390 15389 0
15390 15386 -15389 0
-15391 -15387 0
-15391 -15390 0
15391 15387 15390 0
-15393 29 0
-15393 -8476 0
15393 -29 8476 0
-15394 -15392 0
-15394 -15393 0
15394 15392 15393 0
-15395 -15391 0
-15395 15394 0
15395 15391 -15394 0
-15396 -15392 0
-15396 -15395 0
15396 15392 15395 0
-15398 30 0
-15398 -8477 0
15398 -30 8477 0
-15399 -15397 0
-15399 -15398 0
15399 15397 15398 0
-15400 -15396 0
-15400 15399 0
15400 15396 -15399 0
-15401 -15397 0
-15401 -15400 0
15401 15397 15400 0
-15403 31 0
-15403 -8478 0
15403 -31 8478 0
-15404 -15402 0
-15404 -15403 0
15404 15402 15403 0
-15405 -15401 0
-15405 15404 0
15405 15401 -15404 0
-15406 -15402 0
-15406 -15405 0
15406 15402 15405 0
-15407 -8479 0
-15407 -15406 0
15407 8479 15406 0
-15408 -8479 0
-15408 -15407 0
15408 8479 15407 0
-15409 -8480 0
-15409 -15408 0
15409 8480 15408 0
-15410 -8480 0
-15410 -15409 0
15410 8480 15409 0
-15411 -8481 0
-15411 -15410 0
15411 8481 15410 0
-15412 -8481 0
-15412 -15411 0
15412 8481 15411 0
-15413 -8482 0
-15413 -15412 0
15413 8482 15412 0
-15414 -8482 0
-15414 -15413 0
15414 8482 15413 0
-15415 -8483 0
-15415 -15414 0
15415 8483 15414 0
-15416 -8483 0
-15416 -15415 0
15416 8483 15415 0
-15417 -8484 0
-15417 -15416 0
15417 8484 15416 0
-15418 -8484 0
-15418 -15417 0
15418 8484 15417 0
-15419 -8485 0
-15419 -15418 0
15419 8485 15418 0
-15420 -8485 0
-15420 -15419 0
15420 8485 15419 0
-15421 -8486 0
-15421 -15420 0
15421 8486 15420 0
-15422 -8486 0
-15422 -15421 0
15422 8486 15421 0
-15423 -8487 0
-15423 -15422 0
15423 8487 15422 0
-15424 -8487 0
-15424 -15423 0
15424 8487 15423 0
-15425 -8488 0
-15425 -15424 0
15425 8488 15424 0
-15426 -8488 0
-15426 -15425 0
15426 8488 15425 0
-15427 -8489 0
-15427 -15426 0
15427 8489 15426 0
-15428 -8489 0
-15428 -15427 0
15428 8489 15427 0
-15429 -8490 0
-15429 -15428 0
15429 8490 15428 0
-15430 -8490 0
-15430 -15429 0
15430 8490 15429 0
-15431 -8491 0
-15431 -15430 0
15431 8491 15430 0
-15432 -8491 0
-15432 -15431 0
15432 8491 15431 0
-15433 -8492 0
-15433 -15432 0
15433 8492 15432 0
-15434 -8492 0
-15434 -15433 0
15434 8492 15433 0
-15435 -8493 0
-15435 -15434 0
15435 8493 15434 0
-15436 -8493 0
-15436 -15435 0
15436 8493 15435 0
-15437 -8494 0
-15437 -15436 0
15437 8494 15436 0
-15438 -8494 0
-15438 -15437 0
15438 8494 15437 0
-15439 -8495 0
-15439 -15438 0
15439 8495 15438 0
-15440 -8495 0
-15440 -15439 0
15440 8495 15439 0
-15441 -8496 0
-15441 -15440 0
15441 8496 15440 0
-15442 -8496 0
-15442 -15441 0
15442 8496 15441 0
-15443 -8497 0
-15443 -15442 0
15443 8497 15442 0
-15444 -8497 0
-15444 -15443 0
15444 8497 15443 0
-15445 -8498 0
-15445 -15444 0
15445 8498 15444 0
-15446 -8498 0
-15446 -15445 0
15446 8498 15445 0
-15447 -8499 0
-15447 -15446 0
15447 8499 15446 0
-15448 -8499 0
-15448 -15447 0
15448 8499 15447 0
-15449 -8500 0
-15449 -15448 0
15449 8500 15448 0
-15450 -8500 0
-15450 -15449 0
15450 8500 15449 0
-15451 -8501 0
-15451 -15450 0
15451 8501 15450 0
-15452 -8501 0
-15452 -15451 0
15452 8501 15451 0
-15453 -8502 0
-15453 -15452 0
15453 8502 15452 0
-15454 -8502 0
-15454 -15453 0
15454 8502 15453 0
-15455 -8503 0
-15455 -15454 0
15455 8503 15454 0
-15456 -8503 0
-15456 -15455 0
15456 8503 15455 0
-15457 -8504 0
-15457 -15456 0
15457 8504 15456 0
-15458 -8504 0
-15458 -15457 0
15458 8504 15457 0
-15459 -8505 0
-15459 -15458 0
15459 8505 15458 0
-15460 -8505 0
-15460 -15459 0
15460 8505 15459 0
-15461 -8506 0
-15461 -15460 0
15461 8506 15460 0
-15462 -8506 0
-15462 -15461 0
15462 8506 15461 0
-15463 -8507 0
-15463 -15462 0
15463 8507 15462 0
-15464 -8507 0
-15464 -15463 0
15464 8507 15463 0
-15465 -8508 0
-15465 -15464 0
15465 8508 15464 0
-15466 -8508 0
-15466 -15465 0
15466 8508 15465 0
-15467 -8509 0
-15467 -15466 0
15467 8509 15466 0
-15468 -8509 0
-15468 -15467 0
15468 8509 15467 0
-15469 -8510 0
-15469 -15468 0
15469 8510 15468 0
-15470 -8510 0
-15470 -15469 0
15470 8510 15469 0
-15471 -8511 0
-15471 -15470 0
15471 8511 15470 0
-15472 -8511 0
-15472 -15471 0
15472 8511 15471 0
-15473 -8512 0
-15473 -15472 0
15473 8512 15472 0
-15474 -8512 0
-15474 -15473 0
15474 8512 15473 0
-15475 15257 0
-15475 -15474 0
15475 -15257 15474 0
-15476 15184 0
-15476 -15475 0
15476 -15184 15475 0
-15477 8451 0
-15477 10329 0
15477 -8451 -10329 0
-15478 8451 0
-15478 -15477 0
15478 -8451 15477 0
-15479 -8452 0
-15479 -15478 0
15479 8452 15478 0
-15480 8453 0
-15480 15479 0
15480 -8453 -15479 0
-15481 8453 0
-15481 -15480 0
15481 -8453 15480 0
-15482 -8454 0
-15482 -15481 0
15482 8454 15481 0
-15483 8455 0
-15483 15482 0
15483 -8455 -15482 0
-15484 8455 0
-15484 -15483 0
15484 -8455 15483 0
-15485 -8456 0
-15485 -15484 0
15485 8456 15484 0
-15486 8457 0
-15486 15485 0
15486 -8457 -15485 0
-15487 8457 0
-15487 -15486 0
15487 -8457 15486 0
-15488 -8458 0
-15488 -15487 0
15488 8458 15487 0
-15489 8459 0
-15489 15488 0
15489 -8459 -15488 0
-15490 8459 0
-15490 -15489 0
15490 -8459 15489 0
-15491 -8460 0
-15491 -15490 0
15491 8460 15490 0
-15492 8461 0
-15492 15491 0
15492 -8461 -15491 0
-15493 8461 0
-15493 -15492 0
15493 -8461 15492 0
-15494 -8462 0
-15494 -15493 0
15494 8462 15493 0
-15495 8463 0
-15495 15494 0
15495 -8463 -15494 0
-15496 8463 0
-15496 -15495 0
15496 -8463 15495 0
-15497 -8464 0
-15497 -15496 0
15497 8464 15496 0
-15498 8465 0
-15498 15497 0
15498 -8465 -15497 0
-15499 8465 0
-15499 -15498 0
15499 -8465 15498 0
-15500 -8466 0
-15500 -15499 0
15500 8466 15499 0
-15501 8467 0
-15501 15500 0
15501 -8467 -15500 0
-15502 8467 0
-15502 -15501 0
15502 -8467 15501 0
-15503 -8468 0
-15503 -15502 0
15503 8468 15502 0
-15504 8469 0
-15504 15503 0
15504 -8469 -15503 0
-15505 8469 0
-15505 -15504 0
15505 -8469 15504 0
-15506 -8470 0
-15506 -15505 0
15506 8470 15505 0
-15507 8471 0
-15507 15506 0
15507 -8471 -15506 0
-15508 8471 0
-15508 -15507 0
15508 -8471 15507 0
-15509 -8472 0
-15509 -15508 0
15509 8472 15508 0
-15510 8473 0
-15510 15509 0
15510 -8473 -15509 0
-15511 8473 0
-15511 -15510 0
15511 -8473 15510 0
-15512 -8474 0
-15512 -15511 0
15512 8474 15511 0
-15513 8475 0
-15513 15512 0
15513 -8475 -15512 0
-15514 8475 0
-15514 -15513 0
15514 -8475 15513 0
-15515 -8476 0
-15515 -15514 0
15515 8476 15514 0
-15516 8477 0
-15516 15515 0
15516 -8477 -15515 0
-15517 8477 0
-15517 -15516 0
15517 -8477 15516 0
-15518 -8478 0
-15518 -15517 0
15518 8478 15517 0
-15519 8479 0
-15519 15518 0
15519 -8479 -15518 0
-15520 8479 0
-15520 -15519 0
15520 -8479 15519 0
-15521 -8480 0
-15521 -15520 0
15521 8480 15520 0
-15522 8481 0
-15522 15521 0
15522 -8481 -15521 0
-15523 8481 0
-15523 -15522 0
15523 -8481 15522 0
-15524 -8482 0
-15524 -15523 0
15524 8482 15523 0
-15525 8483 0
-15525 15524 0
15525 -8483 -15524 0
-15526 8483 0
-15526 -15525 0
15526 -8483 15525 0
-15527 -8484 0
-15527 -15526 0
15527 8484 15526 0
-15528 8485 0
-15528 15527 0
15528 -8485 -15527 0
-15529 8485 0
-15529 -15528 0
15529 -8485 15528 0
-15530 -8486 0
-15530 -15529 0
15530 8486 15529 0
-15531 8487 0
-15531 15530 0
15531 -8487 -15530 0
-15532 8487 0
-15532 -15531 0
15532 -8487 15531 0
-15533 -8488 0
-15533 -15532 0
15533 8488 15532 0
-15534 8489 0
-15534 15533 0
15534 -8489 -15533 0
-15535 8489 0
-15535 -15534 0
15535 -8489 15534 0
-15536 -8490 0
-15536 -15535 0
15536 8490 15535 0
-15537 8491 0
-15537 15536 0
15537 -8491 -15536 0
-15538 8491 0
-15538 -15537 0
15538 -8491 15537 0
-15539 -8492 0
-15539 -15538 0
15539 8492 15538 0
-15540 8493 0
-15540 15539 0
15540 -8493 -15539 0
-15541 8493 0
-15541 -15540 0
15541 -8493 15540 0
-15542 -8494 0
-15542 -15541 0
15542 8494 15541 0
-15543 8495 0
-15543 15542 0
15543 -8495 -15542 0
-15544 8495 0
-15544 -15543 0
15544 -8495 15543 0
-15545 -8496 0
-15545 -15544 0
15545 8496 15544 0
-15546 8497 0
-15546 15545 0
15546 -8497 -15545 0
-15547 8497 0
-15547 -15546 0
15547 -8497 15546 0
-15548 -8498 0
-15548 -15547 0
15548 8498 15547 0
-15549 8499 0
-15549 15548 0
15549 -8499 -15548 0
-15550 8499 0
-15550 -15549 0
15550 -8499 15549 0
-15551 -8500 0
-15551 -15550 0
15551 8500 15550 0
-15552 8501 0
-15552 15551 0
15552 -8501 -15551 0
-15553 8501 0
-15553 -15552 0
15553 -8501 15552 0
-15554 -8502 0
-15554 -15553 0
15554 8502 15553 0
-15555 8503 0
-15555 15554 0
15555 -8503 -15554 0
-15556 8503 0
-15556 -15555 0
15556 -8503 15555 0
-15557 -8504 0
-15557 -15556 0
15557 8504 15556 0
-15558 8505 0
-15558 15557 0
15558 -8505 -15557 0
-15559 8505 0
-15559 -15558 0
15559 -8505 15558 0
-15560 -8506 0
-15560 -15559 0
15560 8506 15559 0
-15561 8507 0
-15561 15560 0
15561 -8507 -15560 0
-15562 8507 0
-15562 -15561 0
15562 -8507 15561 0
-15563 -8508 0
-15563 -15562 0
15563 8508 15562 0
-15564 8509 0
-15564 15563 0
15564 -8509 -15563 0
-15565 8509 0
-15565 -15564 0
15565 -8509 15564 0
-15566 -8510 0
-15566 -15565 0
15566 8510 15565 0
-15567 8511 0
-15567 15566 0
15567 -8511 -15566 0
-15568 8511 0
-15568 -15567 0
15568 -8511 15567 0
-15569 -8512 0
-15569 -15568 0
15569 8512 15568 0
-15570 9658 0
-15570 -15569 0
15570 -9658 15569 0
-15571 15476 0
-15571 -15570 0
15571 -15476 15570 0
-15624 9677 0
-15624 15242 0
15624 -9677 -15242 0
-15617 9676 0
-15617 15235 0
15617 -9676 -15235 0
-15610 9675 0
-15610 15228 0
15610 -9675 -15228 0
-15603 9674 0
-15603 15221 0
15603 -9674 -15221 0
-15596 9673 0
-15596 15214 0
15596 -9673 -15214 0
-15589 9672 0
-15589 15207 0
15589 -9672 -15207 0
-15582 9671 0
-15582 15200 0
15582 -9671 -15200 0
-15192 -15185 0
-15192 -15190 0
15192 15185 15190 0
-15193 -15191 0
-15193 -15192 0
15193 15191 15192 0
-15575 9670 0
-15575 15193 0
15575 -9670 -15193 0
-15186 -7854 0
-15186 -14800 0
15186 7854 14800 0
-15187 -15185 0
-15187 -15186 0
15187 15185 15186 0
-15572 9669 0
-15572 15187 0
15572 -9669 -15187 0
-15576 -9670 0
-15576 -15193 0
15576 9670 15193 0
-15577 -15575 0
-15577 -15576 0
15577 15575 15576 0
-15578 15572 0
-15578 15577 0
15578 -15572 -15577 0
-15581 -15575 0
-15581 -15578 0
15581 15575 15578 0
-15583 -9671 0
-15583 -15200 0
15583 9671 15200 0
-15584 -15582 0
-15584 -15583 0
15584 15582 15583 0
-15585 -15581 0
-15585 15584 0
15585 15581 -15584 0
-15588 -15582 0
-15588 -15585 0
15588 15582 15585 0
-15590 -9672 0
-15590 -15207 0
15590 9672 15207 0
-15591 -15589 0
-15591 -15590 0
15591 15589 15590 0
-15592 -15588 0
-15592 15591 0
15592 15588 -15591 0
-15595 -15589 0
-15595 -15592 0
15595 15589 15592 0
-15597 -9673 0
-15597 -15214 0
15597 9673 15214 0
-15598 -15596 0
-15598 -15597 0
15598 15596 15597 0
-15599 -15595 0
-15599 15598 0
15599 15595 -15598 0
-15602 -15596 0
-15602 -15599 0
15602 15596 15599 0
-15604 -9674 0
-15604 -15221 0
15604 9674 15221 0
-15605 -15603 0
-15605 -15604 0
15605 15603 15604 0
-15606 -15602 0
-15606 15605 0
15606 15602 -15605 0
-15609 -15603 0
-15609 -15606 0
15609 15603 15606 0
-15611 -9675 0
-15611 -15228 0
15611 9675 15228 0
-15612 -15610 0
-15612 -15611 0
15612 15610 15611 0
-15613 -15609 0
-15613 15612 0
15613 15609 -15612 0
-15616 -15610 0
-15616 -15613 0
15616 15610 15613 0
-15618 -9676 0
-15618 -15235 0
15618 9676 15235 0
-15619 -15617 0
-15619 -15618 0
15619 15617 15618 0
-15620 -15616 0
-15620 15619 0
15620 15616 -15619 0
-15623 -15617 0
-15623 -15620 0
15623 15617 15620 0
-15625 -9677 0
-15625 -15242 0
15625 9677 15242 0
-15626 -15624 0
-15626 -15625 0
15626 15624 15625 0
-15627 -15623 0
-15627 15626 0
15627 15623 -15626 0
-15630 -15624 0
-15630 -15627 0
15630 15624 15627 0
-15631 9678 0
-15631 15249 0
15631 -9678 -15249 0
-15632 -9678 0
-15632 -15249 0
15632 9678 15249 0
-15633 -15631 0
-15633 -15632 0
15633 15631 15632 0
-15634 -15630 0
-15634 15633 0
15634 15630 -15633 0
-15635 15630 0
-15635 -15633 0
15635 -15630 15633 0
-15636 -15634 0
-15636 -15635 0
15636 15634 15635 0
-15628 15623 0
-15628 -15626 0
15628 -15623 15626 0
-15629 -15627 0
-15629 -15628 0
15629 15627 15628 0
-15621 15616 0
-15621 -15619 0
15621 -15616 15619 0
-15622 -15620 0
-15622 -15621 0
15622 15620 15621 0
-15614 15609 0
-15614 -15612 0
15614 -15609 15612 0
-15615 -15613 0
-15615 -15614 0
15615 15613 15614 0
-15607 15602 0
-15607 -15605 0
15607 -15602 15605 0
-15608 -15606 0
-15608 -15607 0
15608 15606 15607 0
-15600 15595 0
-15600 -15598 0
15600 -15595 15598 0
-15601 -15599 0
-15601 -15600 0
15601 15599 15600 0
-15593 15588 0
-15593 -15591 0
15593 -15588 15591 0
-15594 -15592 0
-15594 -15593 0
15594 15592 15593 0
-15586 15581 0
-15586 -15584 0
15586 -15581 15584 0
-15587 -15585 0
-15587 -15586 0
15587 15585 15586 0
-15573 -9669 0
-15573 -15187 0
15573 9669 15187 0
-15574 -15572 0
-15574 -15573 0
15574 15572 15573 0
-15579 -15572 0
-15579 -15577 0
15579 15572 15577 0
-15580 -15578 0
-15580 -15579 0
15580 15578 15579 0
-15638 -15574 0
-15638 -15580 0
15638 15574 15580 0
-15639 15587 0
-15639 15638 0
15639 -15587 -15638 0
-15640 15587 0
-15640 -15639 0
15640 -15587 15639 0
-15641 -15594 0
-15641 -15640 0
15641 15594 15640 0
-15642 -15601 0
-15642 15641 0
15642 15601 -15641 0
-15643 -15608 0
-15643 15642 0
15643 15608 -15642 0
-15644 -15615 0
-15644 15643 0
15644 15615 -15643 0
-15645 -15622 0
-15645 15644 0
15645 15622 -15644 0
-15646 -15629 0
-15646 15645 0
15646 15629 -15645 0
-15647 -15636 0
-15647 15646 0
15647 15636 -15646 0
-15792 -31 0
-15792 10293 0
15792 31 -10293 0
-15787 -30 0
-15787 10292 0
15787 30 -10292 0
-15782 -29 0
-15782 10291 0
15782 29 -10291 0
-15777 -28 0
-15777 10290 0
15777 28 -10290 0
-15772 -27 0
-15772 10289 0
15772 27 -10289 0
-15767 -26 0
-15767 10288 0
15767 26 -10288 0
-15762 -25 0
-15762 10287 0
15762 25 -10287 0
-15757 -24 0
-15757 10286 0
15757 24 -10286 0
-15752 -23 0
-15752 10285 0
15752 23 -10285 0
-15747 -22 0
-15747 10284 0
15747 22 -10284 0
-15742 -21 0
-15742 10283 0
15742 21 -10283 0
-15737 -20 0
-15737 10282 0
15737 20 -10282 0
-15732 -19 0
-15732 10281 0
15732 19 -10281 0
-15727 -18 0
-15727 10280 0
15727 18 -10280 0
-15722 -17 0
-15722 10279 0
15722 17 -10279 0
-15717 -16 0
-15717 10278 0
15717 16 -10278 0
-15712 -15 0
-15712 10277 0
15712 15 -10277 0
-15707 -14 0
-15707 10276 0
15707 14 -10276 0
-15702 -13 0
-15702 10275 0
15702 13 -10275 0
-15697 -12 0
-15697 10274 0
15697 12 -10274 0
-15692 -11 0
-15692 10273 0
15692 11 -10273 0
-15687 -10 0
-15687 10272 0
15687 10 -10272 0
-15682 -9 0
-15682 10271 0
15682 9 -10271 0
-15677 -8 0
-15677 10270 0
15677 8 -10270 0
-15672 -7 0
-15672 10269 0
15672 7 -10269 0
-15667 -6 0
-15667 10268 0
15667 6 -10268 0
-15662 -5 0
-15662 10267 0
15662 5 -10267 0
-15657 -4 0
-15657 10266 0
15657 4 -10266 0
-15652 -3 0
-15652 10265 0
15652 3 -10265 0
-15648 -2 0
-15648 10264 0
15648 2 -10264 0
-15649 2 0
-15649 -10264 0
15649 -2 10264 0
-15650 -15648 0
-15650 -15649 0
15650 15648 15649 0
-15651 -15648 0
-15651 -15650 0
15651 15648 15650 0
-15653 3 0
-15653 -10265 0
15653 -3 10265 0
-15654 -15652 0
-15654 -15653 0
15654 15652 15653 0
-15655 -15651 0
-15655 15654 0
15655 15651 -15654 0
-15656 -15652 0
-15656 -15655 0
15656 15652 15655 0
-15658 4 0
-15658 -10266 0
15658 -4 10266 0
-15659 -15657 0
-15659 -15658 0
15659 15657 15658 0
-15660 -15656 0
-15660 15659 0
15660 15656 -15659 0
-15661 -15657 0
-15661 -15660 0
15661 15657 15660 0
-15663 5 0
-15663 -10267 0
15663 -5 10267 0
-15664 -15662 0
-15664 -15663 0
15664 15662 15663 0
-15665 -15661 0
-15665 15664 0
15665 15661 -15664 0
-15666 -15662 0
-15666 -15665 0
15666 15662 15665 0
-15668 6 0
-15668 -10268 0
15668 -6 10268 0
-15669 -15667 0
-15669 -15668 0
15669 15667 15668 0
-15670 -15666 0
-15670 15669 0
15670 15666 -15669 0
-15671 -15667 0
-15671 -15670 0
15671 15667 15670 0
-15673 7 0
-15673 -10269 0
15673 -7 10269 0
-15674 -15672 0
-15674 -15673 0
15674 15672 15673 0
-15675 -15671 0
-15675 15674 0
15675 15671 -15674 0
-15676 -15672 0
-15676 -15675 0
15676 15672 15675 0
-15678 8 0
-15678 -10270 0
15678 -8 10270 0
-15679 -15677 0
-15679 -15678 0
15679 15677 15678 0
-15680 -15676 0
-15680 15679 0
15680 15676 -15679 0
-15681 -15677 0
-15681 -15680 0
15681 15677 15680 0
-15683 9 0
-15683 -10271 0
15683 -9 10271 0
-15684 -15682 0
-15684 -15683 0
15684 15682 15683 0
-15685 -15681 0
-15685 15684 0
15685 15681 -15684 0
-15686 -15682 0
-15686 -15685 0
15686 15682 15685 0
-15688 10 0
-15688 -10272 0
15688 -10 10272 0
-15689 -15687 0
-15689 -15688 0
15689 15687 15688 0
-15690 -15686 0
-15690 15689 0
15690 15686 -15689 0
-15691 -15687 0
-15691 -15690 0
15691 15687 15690 0
-15693 11 0
-15693 -10273 0
15693 -11 10273 0
-15694 -15692 0
-15694 -15693 0
15694 15692 15693 0
-15695 -15691 0
-15695 15694 0
15695 15691 -15694 0
-15696 -15692 0
-15696 -15695 0
15696 15692 15695 0
-15698 12 0
-15698 -10274 0
15698 -12 10274 0
-15699 -15697 0
-15699 -15698 0
15699 15697 15698 0
-15700 -15696 0
-15700 15699 0
15700 15696 -15699 0
-15701 -15697 0
-15701 -15700 0
15701 15697 15700 0
-15703 13 0
-15703 -10275 0
15703 -13 10275 0
-15704 -15702 0
-15704 -15703 0
15704 15702 15703 0
-15705 -15701 0
-15705 15704 0
15705 15701 -15704 0
-15706 -15702 0
-15706 -15705 0
15706 15702 15705 0
-15708 14 0
-15708 -10276 0
15708 -14 10276 0
-15709 -15707 0
-15709 -15708 0
15709 15707 15708 0
-15710 -15706 0
-15710 15709 0
15710 15706 -15709 0
-15711 -15707 0
-15711 -15710 0
15711 15707 15710 0
-15713 15 0
-15713 -10277 0
15713 -15 10277 0
-15714 -15712 0
-15714 -15713 0
15714 15712 15713 0
-15715 -15711 0
-15715 15714 0
15715 15711 -15714 0
-15716 -15712 0
-15716 -15715 0
15716 15712 15715 0
-15718 16 0
-15718 -10278 0
15718 -16 10278 0
-15719 -15717 0
-15719 -15718 0
15719 15717 15718 0
-15720 -15716 0
-15720 15719 0
15720 15716 -15719 0
-15721 -15717 0
-15721 -15720 0
15721 15717 15720 0
-15723 17 0
-15723 -10279 0
15723 -17 10279 0
-15724 -15722 0
-15724 -15723 0
15724 15722 15723 0
-15725 -15721 0
-15725 15724 0
15725 15721 -15724 0
-15726 -15722 0
-15726 -15725 0
15726 15722 15725 0
-15728 18 0
-15728 -10280 0
15728 -18 10280 0
-15729 -15727 0
-15729 -15728 0
15729 15727 15728 0
-15730 -15726 0
-15730 15729 0
15730 15726 -15729 0
-15731 -15727 0
-15731 -15730 0
15731 15727 15730 0
-15733 19 0
-15733 -10281 0
15733 -19 10281 0
-15734 -15732 0
-15734 -15733 0
15734 15732 15733 0
-15735 -15731 0
-15735 15734 0
15735 15731 -15734 0
-15736 -15732 0
-15736 -15735 0
15736 15732 15735 0
-15738 20 0
-15738 -10282 0
15738 -20 10282 0
-15739 -15737 0
-15739 -15738 0
15739 15737 15738 0
-15740 -15736 0
-15740 15739 0
15740 15736 -15739 0
-15741 -15737 0
-15741 -15740 0
15741 15737 15740 0
-15743 21 0
-15743 -10283 0
15743 -21 10283 0
-15744 -15742 0
-15744 -15743 0
15744 15742 15743 0
-15745 -15741 0
-15745 15744 0
15745 15741 -15744 0
-15746 -15742 0
-15746 -15745 0
15746 15742 15745 0
-15748 22 0
-15748 -10284 0
15748 -22 10284 0
-15749 -15747 0
-15749 -15748 0
15749 15747 15748 0
-15750 -15746 0
-15750 15749 0
15750 15746 -15749 0
-15751 -15747 0
-15751 -15750 0
15751 15747 15750 0
-15753 23 0
-15753 -10285 0
15753 -23 10285 0
-15754 -15752 0
-15754 -15753 0
15754 15752 15753 0
-15755 -15751 0
-15755 15754 0
15755 15751 -15754 0
-15756 -15752 0
-15756 -15755 0
15756 15752 15755 0
-15758 24 0
-15758 -10286 0
15758 -24 10286 0
-15759 -15757 0
-15759 -15758 0
15759 15757 15758 0
-15760 -15756 0
-15760 15759 0
15760 15756 -15759 0
-15761 -15757 0
-15761 -15760 0
15761 15757 15760 0
-15763 25 0
-15763 -10287 0
15763 -25 10287 0
-15764 -15762 0
-15764 -15763 0
15764 15762 15763 0
-15765 -15761 0
-15765 15764 0
15765 15761 -15764 0
-15766 -15762 0
-15766 -15765 0
15766 15762 15765 0
-15768 26 0
-15768 -10288 0
15768 -26 10288 0
-15769 -15767 0
-15769 -15768 0
15769 15767 15768 0
-15770 -15766 0
-15770 15769 0
15770 15766 -15769 0
-15771 -15767 0
-15771 -15770 0
15771 15767 15770 0
-15773 27 0
-15773 -10289 0
15773 -27 10289 0
-15774 -15772 0
-15774 -15773 0
15774 15772 15773 0
-15775 -15771 0
-15775 15774 0
15775 15771 -15774 0
-15776 -15772 0
-15776 -15775 0
15776 15772 15775 0
-15778 28 0
-15778 -10290 0
15778 -28 10290 0
-15779 -15777 0
-15779 -15778 0
15779 15777 15778 0
-15780 -15776 0
-15780 15779 0
15780 15776 -15779 0
-15781 -15777 0
-15781 -15780 0
15781 15777 15780 0
-15783 29 0
-15783 -10291 0
15783 -29 10291 0
-15784 -15782 0
-15784 -15783 0
15784 15782 15783 0
-15785 -15781 0
-15785 15784 0
15785 15781 -15784 0
-15786 -15782 0
-15786 -15785 0
15786 15782 15785 0
-15788 30 0
-15788 -10292 0
15788 -30 10292 0
-15789 -15787 0
-15789 -15788 0
15789 15787 15788 0
-15790 -15786 0
-15790 15789 0
15790 15786 -15789 0
-15791 -15787 0
-15791 -15790 0
15791 15787 15790 0
-15793 31 0
-15793 -10293 0
15793 -31 10293 0
-15794 -15792 0
-15794 -15793 0
15794 15792 15793 0
-15795 -15791 0
-15795 15794 0
15795 15791 -15794 0
-15796 -15792 0
-15796 -15795 0
15796 15792 15795 0
-15797 -10294 0
-15797 -15796 0
15797 10294 15796 0
-15798 -10294 0
-15798 -15797 0
15798 10294 15797 0
-15799 -10295 0
-15799 -15798 0
15799 10295 15798 0
-15800 -10295 0
-15800 -15799 0
15800 10295 15799 0
-15801 -10296 0
-15801 -15800 0
15801 10296 15800 0
-15802 -10296 0
-15802 -15801 0
15802 10296 15801 0
-15803 -10297 0
-15803 -15802 0
15803 10297 15802 0
-15804 -10297 0
-15804 -15803 0
15804 10297 15803 0
-15805 -10298 0
-15805 -15804 0
15805 10298 15804 0
-15806 -10298 0
-15806 -15805 0
15806 10298 15805 0
-15807 -10299 0
-15807 -15806 0
15807 10299 15806 0
-15808 -10299 0
-15808 -15807 0
15808 10299 15807 0
-15809 -10300 0
-15809 -15808 0
15809 10300 15808 0
-15810 -10300 0
-15810 -15809 0
15810 10300 15809 0
-15811 -10301 0
-15811 -15810 0
15811 10301 15810 0
-15812 -10301 0
-15812 -15811 0
15812 10301 15811 0
-15813 -10302 0
-15813 -15812 0
15813 10302 15812 0
-15814 -10302 0
-15814 -15813 0
15814 10302 15813 0
-15815 -10303 0
-15815 -15814 0
15815 10303 15814 0
-15816 -10303 0
-15816 -15815 0
15816 10303 15815 0
-15817 -10304 0
-15817 -15816 0
15817 10304 15816 0
-15818 -10304 0
-15818 -15817 0
15818 10304 15817 0
-15819 -10305 0
-15819 -15818 0
15819 10305 15818 0
-15820 -10305 0
-15820 -15819 0
15820 10305 15819 0
-15821 -10306 0
-15821 -15820 0
15821 10306 15820 0
-15822 -10306 0
-15822 -15821 0
15822 10306 15821 0
-15823 -10307 0
-15823 -15822 0
15823 10307 15822 0
-15824 -10307 0
-15824 -15823 0
15824 10307 15823 0
-15825 -10308 0
-15825 -15824 0
15825 10308 15824 0
-15826 -10308 0
-15826 -15825 0
15826 10308 15825 0
-15827 -10309 0
-15827 -15826 0
15827 10309 15826 0
-15828 -10309 0
-15828 -15827 0
15828 10309 15827 0
-15829 -10310 0
-15829 -15828 0
15829 10310 15828 0
-15830 -10310 0
-15830 -15829 0
15830 10310 15829 0
-15831 -10311 0
-15831 -15830 0
15831 10311 15830 0
-15832 -10311 0
-15832 -15831 0
15832 10311 15831 0
-15833 -10312 0
-15833 -15832 0
15833 10312 15832 0
-15834 -10312 0
-15834 -15833 0
15834 10312 15833 0
-15835 -10313 0
-15835 -15834 0
15835 10313 15834 0
-15836 -10313 0
-15836 -15835 0
15836 10313 15835 0
-15837 -10314 0
-15837 -15836 0
15837 10314 15836 0
-15838 -10314 0
-15838 -15837 0
15838 10314 15837 0
-15839 -10315 0
-15839 -15838 0
15839 10315 15838 0
-15840 -10315 0
-15840 -15839 0
15840 10315 15839 0
-15841 -10316 0
-15841 -15840 0
15841 10316 15840 0
-15842 -10316 0
-15842 -15841 0
15842 10316 15841 0
-15843 -10317 0
-15843 -15842 0
15843 10317 15842 0
-15844 -10317 0
-15844 -15843 0
15844 10317 15843 0
-15845 -10318 0
-15845 -15844 0
15845 10318 15844 0
-15846 -10318 0
-15846 -15845 0
15846 10318 15845 0
-15847 -10319 0
-15847 -15846 0
15847 10319 15846 0
-15848 -10319 0
-15848 -15847 0
15848 10319 15847 0
-15849 -10320 0
-15849 -15848 0
15849 10320 15848 0
-15850 -10320 0
-15850 -15849 0
15850 10320 15849 0
-15851 -10321 0
-15851 -15850 0
15851 10321 15850 0
-15852 -10321 0
-15852 -15851 0
15852 10321 15851 0
-15853 -10322 0
-15853 -15852 0
15853 10322 15852 0
-15854 -10322 0
-15854 -15853 0
15854 10322 15853 0
-15855 -10323 0
-15855 -15854 0
15855 10323 15854 0
-15856 -10323 0
-15856 -15855 0
15856 10323 15855 0
-15857 -10324 0
-15857 -15856 0
15857 10324 15856 0
-15858 -10324 0
-15858 -15857 0
15858 10324 15857 0
-15859 -10325 0
-15859 -15858 0
15859 10325 15858 0
-15860 -10325 0
-15860 -15859 0
15860 10325 15859 0
-15861 -10326 0
-15861 -15860 0
15861 10326 15860 0
-15862 -10326 0
-15862 -15861 0
15862 10326 15861 0
-15863 -10327 0
-15863 -15862 0
15863 10327 15862 0
-15864 -10327 0
-15864 -15863 0
15864 10327 15863 0
-15865 15647 0
-15865 -15864 0
15865 -15647 15864 0
-15866 15571 0
-15866 -15865 0
15866 -15571 15865 0
-15867 10266 0
-15867 12144 0
15867 -10266 -12144 0
-15868 10266 0
-15868 -15867 0
15868 -10266 15867 0
-15869 -10267 0
-15869 -15868 0
15869 10267 15868 0
-15870 10268 0
-15870 15869 0
15870 -10268 -15869 0
-15871 10268 0
-15871 -15870 0
15871 -10268 15870 0
-15872 -10269 0
-15872 -15871 0
15872 10269 15871 0
-15873 10270 0
-15873 15872 0
15873 -10270 -15872 0
-15874 10270 0
-15874 -15873 0
15874 -10270 15873 0
-15875 -10271 0
-15875 -15874 0
15875 10271 15874 0
-15876 10272 0
-15876 15875 0
15876 -10272 -15875 0
-15877 10272 0
-15877 -15876 0
15877 -10272 15876 0
-15878 -10273 0
-15878 -15877 0
15878 10273 15877 0
-15879 10274 0
-15879 15878 0
15879 -10274 -15878 0
-15880 10274 0
-15880 -15879 0
15880 -10274 15879 0
-15881 -10275 0
-15881 -15880 0
15881 10275 15880 0
-15882 10276 0
-15882 15881 0
15882 -10276 -15881 0
-15883 10276 0
-15883 -15882 0
15883 -10276 15882 0
-15884 -10277 0
-15884 -15883 0
15884 10277 15883 0
-15885 10278 0
-15885 15884 0
15885 -10278 -15884 0
-15886 10278 0
-15886 -15885 0
15886 -10278 15885 0
-15887 -10279 0
-15887 -15886 0
15887 10279 15886 0
-15888 10280 0
-15888 15887 0
15888 -10280 -15887 0
-15889 10280 0
-15889 -15888 0
15889 -10280 15888 0
-15890 -10281 0
-15890 -15889 0
15890 10281 15889 0
-15891 10282 0
-15891 15890 0
15891 -10282 -15890 0
-15892 10282 0
-15892 -15891 0
15892 -10282 15891 0
-15893 -10283 0
-15893 -15892 0
15893 10283 15892 0
-15894 10284 0
-15894 15893 0
15894 -10284 -15893 0
-15895 10284 0
-15895 -15894 0
15895 -10284 15894 0
-15896 -10285 0
-15896 -15895 0
15896 10285 15895 0
-15897 10286 0
-15897 15896 0
15897 -10286 -15896 0
-15898 10286 0
-15898 -15897 0
15898 -10286 15897 0
-15899 -10287 0
-15899 -15898 0
15899 10287 15898 0
-15900 10288 0
-15900 15899 0
15900 -10288 -15899 0
-15901 10288 0
-15901 -15900 0
15901 -10288 15900 0
-15902 -10289 0
-15902 -15901 0
15902 10289 15901 0
-15903 10290 0
-15903 15902 0
15903 -10290 -15902 0
-15904 10290 0
-15904 -15903 0
15904 -10290 15903 0
-15905 -10291 0
-15905 -15904 0
15905 10291 15904 0
-15906 10292 0
-15906 15905 0
15906 -10292 -15905 0
-15907 10292 0
-15907 -15906 0
15907 -10292 15906 0
-15908 -10293 0
-15908 -15907 0
15908 10293 15907 0
-15909 10294 0
-15909 15908 0
15909 -10294 -15908 0
-15910 10294 0
-15910 -15909 0
15910 -10294 15909 0
-15911 -10295 0
-15911 -15910 0
15911 10295 15910 0
-15912 10296 0
-15912 15911 0
15912 -10296 -15911 0
-15913 10296 0
-15913 -15912 0
15913 -10296 15912 0
-15914 -10297 0
-15914 -15913 0
15914 10297 15913 0
-15915 10298 0
-15915 15914 0
15915 -10298 -15914 0
-15916 10298 0
-15916 -15915 0
15916 -10298 15915 0
-15917 -10299 0
-15917 -15916 0
15917 10299 15916 0
-15918 10300 0
-15918 15917 0
15918 -10300 -15917 0
-15919 10300 0
-15919 -15918 0
15919 -10300 15918 0
-15920 -10301 0
-15920 -15919 0
15920 10301 15919 0
-15921 10302 0
-15921 15920 0
15921 -10302 -15920 0
-15922 10302 0
-15922 -15921 0
15922 -10302 15921 0
-15923 -10303 0
-15923 -15922 0
15923 10303 15922 0
-15924 10304 0
-15924 15923 0
15924 -10304 -15923 0
-15925 10304 0
-15925 -15924 0
15925 -10304 15924 0
-15926 -10305 0
-15926 -15925 0
15926 10305 15925 0
-15927 10306 0
-15927 15926 0
15927 -10306 -15926 0
-15928 10306 0
-15928 -15927 0
15928 -10306 15927 0
-15929 -10307 0
-15929 -15928 0
15929 10307 15928 0
-15930 10308 0
-15930 15929 0
15930 -10308 -15929 0
-15931 10308 0
-15931 -15930 0
15931 -10308 15930 0
-15932 -10309 0
-15932 -15931 0
15932 10309 15931 0
-15933 10310 0
-15933 15932 0
15933 -10310 -15932 0
-15934 10310 0
-15934 -15933 0
15934 -10310 15933 0
-15935 -10311 0
-15935 -15934 0
15935 10311 15934 0
-15936 10312 0
-15936 15935 0
15936 -10312 -15935 0
-15937 10312 0
-15937 -15936 0
15937 -10312 15936 0
-15938 -10313 0
-15938 -15937 0
15938 10313 15937 0
-15939 10314 0
-15939 15938 0
15939 -10314 -15938 0
-15940 10314 0
-15940 -15939 0
15940 -10314 15939 0
-15941 -10315 0
-15941 -15940 0
15941 10315 15940 0
-15942 10316 0
-15942 15941 0
15942 -10316 -15941 0
-15943 10316 0
-15943 -15942 0
15943 -10316 15942 0
-15944 -10317 0
-15944 -15943 0
15944 10317 15943 0
-15945 10318 0
-15945 15944 0
15945 -10318 -15944 0
-15946 10318 0
-15946 -15945 0
15946 -10318 15945 0
-15947 -10319 0
-15947 -15946 0
15947 10319 15946 0
-15948 10320 0
-15948 15947 0
15948 -10320 -15947 0
-15949 10320 0
-15949 -15948 0
15949 -10320 15948 0
-15950 -10321 0
-15950 -15949 0
15950 10321 15949 0
-15951 10322 0
-15951 15950 0
15951 -10322 -15950 0
-15952 10322 0
-15952 -15951 0
15952 -10322 15951 0
-15953 -10323 0
-15953 -15952 0
15953 10323 15952 0
-15954 10324 0
-15954 15953 0
15954 -10324 -15953 0
-15955 10324 0
-15955 -15954 0
15955 -10324 15954 0
-15956 -10325 0
-15956 -15955 0
15956 10325 15955 0
-15957 10326 0
-15957 15956 0
15957 -10326 -15956 0
-15958 10326 0
-15958 -15957 0
15958 -10326 15957 0
-15959 -10327 0
-15959 -15958 0
15959 10327 15958 0
-15960 11473 0
-15960 -15959 0
15960 -11473 15959 0
-15961 15866 0
-15961 -15960 0
15961 -15866 15960 0
-16014 11492 0
-16014 15629 0
16014 -11492 -15629 0
-16007 11491 0
-16007 15622 0
16007 -11491 -15622 0
-16000 11490 0
-16000 15615 0
16000 -11490 -15615 0
-15993 11489 0
-15993 15608 0
15993 -11489 -15608 0
-15986 11488 0
-15986 15601 0
15986 -11488 -15601 0
-15979 11487 0
-15979 15594 0
15979 -11487 -15594 0
-15972 11486 0
-15972 15587 0
15972 -11486 -15587 0
-15965 11485 0
-15965 15580 0
15965 -11485 -15580 0
-15962 11484 0
-15962 15574 0
15962 -11484 -15574 0
-15966 -11485 0
-15966 -15580 0
15966 11485 15580 0
-15967 -15965 0
-15967 -15966 0
15967 15965 15966 0
-15968 15962 0
-15968 15967 0
15968 -15962 -15967 0
-15971 -15965 0
-15971 -15968 0
15971 15965 15968 0
-15973 -11486 0
-15973 -15587 0
15973 11486 15587 0
-15974 -15972 0
-15974 -15973 0
15974 15972 15973 0
-15975 -15971 0
-15975 15974 0
15975 15971 -15974 0
-15978 -15972 0
-15978 -15975 0
15978 15972 15975 0
-15980 -11487 0
-15980 -15594 0
15980 11487 15594 0
-15981 -15979 0
-15981 -15980 0
15981 15979 15980 0
-15982 -15978 0
-15982 15981 0
15982 15978 -15981 0
-15985 -15979 0
-15985 -15982 0
15985 15979 15982 0
-15987 -11488 0
-15987 -15601 0
15987 11488 15601 0
-15988 -15986 0
-15988 -15987 0
15988 15986 15987 0
-15989 -15985 0
-15989 15988 0
15989 15985 -15988 0
-15992 -15986 0
-15992 -15989 0
15992 15986 15989 0
-15994 -11489 0
-15994 -15608 0
15994 11489 15608 0
-15995 -15993 0
-15995 -15994 0
15995 15993 15994 0
-15996 -15992 0
-15996 15995 0
15996 15992 -15995 0
-15999 -15993 0
-15999 -15996 0
15999 15993 15996 0
-16001 -11490 0
-16001 -15615 0
16001 11490 15615 0
-16002 -16000 0
-16002 -16001 0
16002 16000 16001 0
-16003 -15999 0
-16003 16002 0
16003 15999 -16002 0
-16006 -16000 0
-16006 -16003 0
16006 16000 16003 0
-16008 -11491 0
-16008 -15622 0
16008 11491 15622 0
-16009 -16007 0
-16009 -16008 0
16009 16007 16008 0
-16010 -16006 0
-16010 16009 0
16010 16006 -16009 0
-16013 -16007 0
-16013 -16010 0
16013 16007 16010 0
-16015 -11492 0
-16015 -15629 0
16015 11492 15629 0
-16016 -16014 0
-16016 -16015 0
16016 16014 16015 0
-16017 -16013 0
-16017 16016 0
16017 16013 -16016 0
-16020 -16014 0
-16020 -16017 0
16020 16014 16017 0
-16021 11493 0
-16021 15636 0
16021 -11493 -15636 0
-16022 -11493 0
-16022 -15636 0
16022 11493 15636 0
-16023 -16021 0
-16023 -16022 0
16023 16021 16022 0
-16024 -16020 0
-16024 16023 0
16024 16020 -16023 0
-16025 16020 0
-16025 -16023 0
16025 -16020 16023 0
-16026 -16024 0
-16026 -16025 0
16026 16024 16025 0
-16018 16013 0
-16018 -16016 0
16018 -16013 16016 0
-16019 -16017 0
-16019 -16018 0
16019 16017 16018 0
-16011 16006 0
-16011 -16009 0
16011 -16006 16009 0
-16012 -16010 0
-16012 -16011 0
16012 16010 16011 0
-16004 15999 0
-16004 -16002 0
16004 -15999 16002 0
-16005 -16003 0
-16005 -16004 0
16005 16003 16004 0
-15997 15992 0
-15997 -15995 0
15997 -15992 15995 0
-15998 -15996 0
-15998 -15997 0
15998 15996 15997 0
-15990 15985 0
-15990 -15988 0
15990 -15985 15988 0
-15991 -15989 0
-15991 -15990 0
15991 15989 15990 0
-15983 15978 0
-15983 -15981 0
15983 -15978 15981 0
-15984 -15982 0
-15984 -15983 0
15984 15982 15983 0
-15976 15971 0
-15976 -15974 0
15976 -15971 15974 0
-15977 -15975 0
-15977 -15976 0
15977 15975 15976 0
-15969 -15962 0
-15969 -15967 0
15969 15962 15967 0
-15970 -15968 0
-15970 -15969 0
15970 15968 15969 0
-16028 -15970 0
-16028 15977 0
16028 15970 -15977 0
-16029 15977 0
-16029 -16028 0
16029 -15977 16028 0
-16030 -15984 0
-16030 -16029 0
16030 15984 16029 0
-16031 -15991 0
-16031 16030 0
16031 15991 -16030 0
-16032 -15998 0
-16032 16031 0
16032 15998 -16031 0
-16033 -16005 0
-16033 16032 0
16033 16005 -16032 0
-16034 -16012 0
-16034 16033 0
16034 16012 -16033 0
-16035 -16019 0
-16035 16034 0
16035 16019 -16034 0
-16036 -16026 0
-16036 16035 0
16036 16026 -16035 0
-16181 -31 0
-16181 12108 0
16181 31 -12108 0
-16176 -30 0
-16176 12107 0
16176 30 -12107 0
-16171 -29 0
-16171 12106 0
16171 29 -12106 0
-16166 -28 0
-16166 12105 0
16166 28 -12105 0
-16161 -27 0
-16161 12104 0
16161 27 -12104 0
-16156 -26 0
-16156 12103 0
16156 26 -12103 0
-16151 -25 0
-16151 12102 0
16151 25 -12102 0
-16146 -24 0
-16146 12101 0
16146 24 -12101 0
-16141 -23 0
-16141 12100 0
16141 23 -12100 0
-16136 -22 0
-16136 12099 0
16136 22 -12099 0
-16131 -21 0
-16131 12098 0
16131 21 -12098 0
-16126 -20 0
-16126 12097 0
16126 20 -12097 0
-16121 -19 0
-16121 12096 0
16121 19 -12096 0
-16116 -18 0
-16116 12095 0
16116 18 -12095 0
-16111 -17 0
-16111 12094 0
16111 17 -12094 0
-16106 -16 0
-16106 12093 0
16106 16 -12093 0
-16101 -15 0
-16101 12092 0
16101 15 -12092 0
-16096 -14 0
-16096 12091 0
16096 14 -12091 0
-16091 -13 0
-16091 12090 0
16091 13 -12090 0
-16086 -12 0
-16086 12089 0
16086 12 -12089 0
-16081 -11 0
-16081 12088 0
16081 11 -12088 0
-16076 -10 0
-16076 12087 0
16076 10 -12087 0
-16071 -9 0
-16071 12086 0
16071 9 -12086 0
-16066 -8 0
-16066 12085 0
16066 8 -12085 0
-16061 -7 0
-16061 12084 0
16061 7 -12084 0
-16056 -6 0
-16056 12083 0
16056 6 -12083 0
-16051 -5 0
-16051 12082 0
16051 5 -12082 0
-16046 -4 0
-16046 12081 0
16046 4 -12081 0
-16041 -3 0
-16041 12080 0
16041 3 -12080 0
-16037 -2 0
-16037 12079 0
16037 2 -12079 0
-16038 2 0
-16038 -12079 0
16038 -2 12079 0
-16039 -16037 0
-16039 -16038 0
16039 16037 16038 0
-16040 -16037 0
-16040 -16039 0
16040 16037 16039 0
-16042 3 0
-16042 -12080 0
16042 -3 12080 0
-16043 -16041 0
-16043 -16042 0
16043 16041 16042 0
-16044 -16040 0
-16044 16043 0
16044 16040 -16043 0
-16045 -16041 0
-16045 -16044 0
16045 16041 16044 0
-16047 4 0
-16047 -12081 0
16047 -4 12081 0
-16048 -16046 0
-16048 -16047 0
16048 16046 16047 0
-16049 -16045 0
-16049 16048 0
16049 16045 -16048 0
-16050 -16046 0
-16050 -16049 0
16050 16046 16049 0
-16052 5 0
-16052 -12082 0
16052 -5 12082 0
-16053 -16051 0
-16053 -16052 0
16053 16051 16052 0
-16054 -16050 0
-16054 16053 0
16054 16050 -16053 0
-16055 -16051 0
-16055 -16054 0
16055 16051 16054 0
-16057 6 0
-16057 -12083 0
16057 -6 12083 0
-16058 -16056 0
-16058 -16057 0
16058 16056 16057 0
-16059 -16055 0
-16059 16058 0
16059 16055 -16058 0
-16060 -16056 0
-16060 -16059 0
16060 16056 16059 0
-16062 7 0
-16062 -12084 0
16062 -7 12084 0
-16063 -16061 0
-16063 -16062 0
16063 16061 16062 0
-16064 -16060 0
-16064 16063 0
16064 16060 -16063 0
-16065 -16061 0
-16065 -16064 0
16065 16061 16064 0
-16067 8 0
-16067 -12085 0
16067 -8 12085 0
-16068 -16066 0
-16068 -16067 0
16068 16066 16067 0
-16069 -16065 0
-16069 16068 0
16069 16065 -16068 0
-16070 -16066 0
-16070 -16069 0
16070 16066 16069 0
-16072 9 0
-16072 -12086 0
16072 -9 12086 0
-16073 -16071 0
-16073 -16072 0
16073 16071 16072 0
-16074 -16070 0
-16074 16073 0
16074 16070 -16073 0
-16075 -16071 0
-16075 -16074 0
16075 16071 16074 0
-16077 10 0
-16077 -12087 0
16077 -10 12087 0
-16078 -16076 0
-16078 -16077 0
16078 16076 16077 0
-16079 -16075 0
-16079 16078 0
16079 16075 -16078 0
-16080 -16076 0
-16080 -16079 0
16080 16076 16079 0
-16082 11 0
-16082 -12088 0
16082 -11 12088 0
-16083 -16081 0
-16083 -16082 0
16083 16081 16082 0
-16084 -16080 0
-16084 16083 0
16084 16080 -16083 0
-16085 -16081 0
-16085 -16084 0
16085 16081 16084 0
-16087 12 0
-16087 -12089 0
16087 -12 12089 0
-16088 -16086 0
-16088 -16087 0
16088 16086 16087 0
-16089 -16085 0
-16089 16088 0
16089 16085 -16088 0
-16090 -16086 0
-16090 -16089 0
16090 16086 16089 0
-16092 13 0
-16092 -12090 0
16092 -13 12090 0
-16093 -16091 0
-16093 -16092 0
16093 16091 16092 0
-16094 -16090 0
-16094 16093 0
16094 16090 -16093 0
-16095 -16091 0
-16095 -16094 0
16095 16091 16094 0
-16097 14 0
-16097 -12091 0
16097 -14 12091 0
-16098 -16096 0
-16098 -16097 0
16098 16096 16097 0
-16099 -16095 0
-16099 16098 0
16099 16095 -16098 0
-16100 -16096 0
-16100 -16099 0
16100 16096 16099 0
-16102 15 0
-16102 -12092 0
16102 -15 12092 0
-16103 -16101 0
-16103 -16102 0
16103 16101 16102 0
-16104 -16100 0
-16104 16103 0
16104 16100 -16103 0
-16105 -16101 0
-16105 -16104 0
16105 16101 16104 0
-16107 16 0
-16107 -12093 0
16107 -16 12093 0
-16108 -16106 0
-16108 -16107 0
16108 16106 16107 0
-16109 -16105 0
-16109 16108 0
16109 16105 -16108 0
-16110 -16106 0
-16110 -16109 0
16110 16106 16109 0
-16112 17 0
-16112 -12094 0
16112 -17 12094 0
-16113 -16111 0
-16113 -16112 0
16113 16111 16112 0
-16114 -16110 0
-16114 16113 0
16114 16110 -16113 0
-16115 -16111 0
-16115 -16114 0
16115 16111 16114 0
-16117 18 0
-16117 -12095 0
16117 -18 12095 0
-16118 -16116 0
-16118 -16117 0
16118 16116 16117 0
-16119 -16115 0
-16119 16118 0
16119 16115 -16118 0
-16120 -16116 0
-16120 -16119 0
16120 16116 16119 0
-16122 19 0
-16122 -12096 0
16122 -19 12096 0
-16123 -16121 0
-16123 -16122 0
16123 16121 16122 0
-16124 -16120 0
-16124 16123 0
16124 16120 -16123 0
-16125 -16121 0
-16125 -16124 0
16125 16121 16124 0
-16127 20 0
-16127 -12097 0
16127 -20 12097 0
-16128 -16126 0
-16128 -16127 0
16128 16126 16127 0
-16129 -16125 0
-16129 16128 0
16129 16125 -16128 0
-16130 -16126 0
-16130 -16129 0
16130 16126 16129 0
-16132 21 0
-16132 -12098 0
16132 -21 12098 0
-16133 -16131 0
-16133 -16132 0
16133 16131 16132 0
-16134 -16130 0
-16134 16133 0
16134 16130 -16133 0
-16135 -16131 0
-16135 -16134 0
16135 16131 16134 0
-16137 22 0
-16137 -12099 0
16137 -22 12099 0
-16138 -16136 0
-16138 -16137 0
16138 16136 16137 0
-16139 -16135 0
-16139 16138 0
16139 16135 -16138 0
-16140 -16136 0
-16140 -16139 0
16140 16136 16139 0
-16142 23 0
-16142 -12100 0
16142 -23 12100 0
-16143 -16141 0
-16143 -16142 0
16143 16141 16142 0
-16144 -16140 0
-16144 16143 0
16144 16140 -16143 0
-16145 -16141 0
-16145 -16144 0
16145 16141 16144 0
-16147 24 0
-16147 -12101 0
16147 -24 12101 0
-16148 -16146 0
-16148 -16147 0
16148 16146 16147 0
-16149 -16145 0
-16149 16148 0
16149 16145 -16148 0
-16150 -16146 0
-16150 -16149 0
16150 16146 16149 0
-16152 25 0
-16152 -12102 0
16152 -25 12102 0
-16153 -16151 0
-16153 -16152 0
16153 16151 16152 0
-16154 -16150 0
-16154 16153 0
16154 16150 -16153 0
-16155 -16151 0
-16155 -16154 0
16155 16151 16154 0
-16157 26 0
-16157 -12103 0
16157 -26 12103 0
-16158 -16156 0
-16158 -16157 0
16158 16156 16157 0
-16159 -16155 0
-16159 16158 0
16159 16155 -16158 0
-16160 -16156 0
-16160 -16159 0
16160 16156 16159 0
-16162 27 0
-16162 -12104 0
16162 -27 12104 0
-16163 -16161 0
-16163 -16162 0
16163 16161 16162 0
-16164 -16160 0
-16164 16163 0
16164 16160 -16163 0
-16165 -16161 0
-16165 -16164 0
16165 16161 16164 0
-16167 28 0
-16167 -12105 0
16167 -28 12105 0
-16168 -16166 0
-16168 -16167 0
16168 16166 16167 0
-16169 -16165 0
-16169 16168 0
16169 16165 -16168 0
-16170 -16166 0
-16170 -16169 0
16170 16166 16169 0
-16172 29 0
-16172 -12106 0
16172 -29 12106 0
-16173 -16171 0
-16173 -16172 0
16173 16171 16172 0
-16174 -16170 0
-16174 16173 0
16174 16170 -16173 0
-16175 -16171 0
-16175 -16174 0
16175 16171 16174 0
-16177 30 0
-16177 -12107 0
16177 -30 12107 0
-16178 -16176 0
-16178 -16177 0
16178 16176 16177 0
-16179 -16175 0
-16179 16178 0
16179 16175 -16178 0
-16180 -16176 0
-16180 -16179 0
16180 16176 16179 0
-16182 31 0
-16182 -12108 0
16182 -31 12108 0
-16183 -16181 0
-16183 -16182 0
16183 16181 16182 0
-16184 -16180 0
-16184 16183 0
16184 16180 -16183 0
-16185 -16181 0
-16185 -16184 0
16185 16181 16184 0
-16186 -12109 0
-16186 -16185 0
16186 12109 16185 0
-16187 -12109 0
-16187 -16186 0
16187 12109 16186 0
-16188 -12110 0
-16188 -16187 0
16188 12110 16187 0
-16189 -12110 0
-16189 -16188 0
16189 12110 16188 0
-16190 -12111 0
-16190 -16189 0
16190 12111 16189 0
-16191 -12111 0
-16191 -16190 0
16191 12111 16190 0
-16192 -12112 0
-16192 -16191 0
16192 12112 16191 0
-16193 -12112 0
-16193 -16192 0
16193 12112 16192 0
-16194 -12113 0
-16194 -16193 0
16194 12113 16193 0
-16195 -12113 0
-16195 -16194 0
16195 12113 16194 0
-16196 -12114 0
-16196 -16195 0
16196 12114 16195 0
-16197 -12114 0
-16197 -16196 0
16197 12114 16196 0
-16198 -12115 0
-16198 -16197 0
16198 12115 16197 0
-16199 -12115 0
-16199 -16198 0
16199 12115 16198 0
-16200 -12116 0
-16200 -16199 0
16200 12116 16199 0
-16201 -12116 0
-16201 -16200 0
16201 12116 16200 0
-16202 -12117 0
-16202 -16201 0
16202 12117 16201 0
-16203 -12117 0
-16203 -16202 0
16203 12117 16202 0
-16204 -12118 0
-16204 -16203 0
16204 12118 16203 0
-16205 -12118 0
-16205 -16204 0
16205 12118 16204 0
-16206 -12119 0
-16206 -16205 0
16206 12119 16205 0
-16207 -12119 0
-16207 -16206 0
16207 12119 16206 0
-16208 -12120 0
-16208 -16207 0
16208 12120 16207 0
-16209 -12120 0
-16209 -16208 0
16209 12120 16208 0
-16210 -12121 0
-16210 -16209 0
16210 12121 16209 0
-16211 -12121 0
-16211 -16210 0
16211 12121 16210 0
-16212 -12122 0
-16212 -16211 0
16212 12122 16211 0
-16213 -12122 0
-16213 -16212 0
16213 12122 16212 0
-16214 -12123 0
-16214 -16213 0
16214 12123 16213 0
-16215 -12123 0
-16215 -16214 0
16215 12123 16214 0
-16216 -12124 0
-16216 -16215 0
16216 12124 16215 0
-16217 -12124 0
-16217 -16216 0
16217 12124 16216 0
-16218 -12125 0
-16218 -16217 0
16218 12125 16217 0
-16219 -12125 0
-16219 -16218 0
16219 12125 16218 0
-16220 -12126 0
-16220 -16219 0
16220 12126 16219 0
-16221 -12126 0
-16221 -16220 0
16221 12126 16220 0
-16222 -12127 0
-16222 -16221 0
16222 12127 16221 0
-16223 -12127 0
-16223 -16222 0
16223 12127 16222 0
-16224 -12128 0
-16224 -16223 0
16224 12128 16223 0
-16225 -12128 0
-16225 -16224 0
16225 12128 16224 0
-16226 -12129 0
-16226 -16225 0
16226 12129 16225 0
-16227 -12129 0
-16227 -16226 0
16227 12129 16226 0
-16228 -12130 0
-16228 -16227 0
16228 12130 16227 0
-16229 -12130 0
-16229 -16228 0
16229 12130 16228 0
-16230 -12131 0
-16230 -16229 0
16230 12131 16229 0
-16231 -12131 0
-16231 -16230 0
16231 12131 16230 0
-16232 -12132 0
-16232 -16231 0
16232 12132 16231 0
-16233 -12132 0
-16233 -16232 0
16233 12132 16232 0
-16234 -12133 0
-16234 -16233 0
16234 12133 16233 0
-16235 -12133 0
-16235 -16234 0
16235 12133 16234 0
-16236 -12134 0
-16236 -16235 0
16236 12134 16235 0
-16237 -12134 0
-16237 -16236 0
16237 12134 16236 0
-16238 -12135 0
-16238 -16237 0
16238 12135 16237 0
-16239 -12135 0
-16239 -16238 0
16239 12135 16238 0
-16240 -12136 0
-16240 -16239 0
16240 12136 16239 0
-16241 -12136 0
-16241 -16240 0
16241 12136 16240 0
-16242 -12137 0
-16242 -16241 0
16242 12137 16241 0
-16243 -12137 0
-16243 -16242 0
16243 12137 16242 0
-16244 -12138 0
-16244 -16243 0
16244 12138 16243 0
-16245 -12138 0
-16245 -16244 0
16245 12138 16244 0
-16246 -12139 0
-16246 -16245 0
16246 12139 16245 0
-16247 -12139 0
-16247 -16246 0
16247 12139 16246 0
-16248 -12140 0
-16248 -16247 0
16248 12140 16247 0
-16249 -12140 0
-16249 -16248 0
16249 12140 16248 0
-16250 -12141 0
-16250 -16249 0
16250 12141 16249 0
-16251 -12141 0
-16251 -16250 0
16251 12141 16250 0
-16252 -12142 0
-16252 -16251 0
16252 12142 16251 0
-16253 -12142 0
-16253 -16252 0
16253 12142 16252 0
-16254 16036 0
-16254 -16253 0
16254 -16036 16253 0
-16255 15961 0
-16255 -16254 0
16255 -15961 16254 0
-16256 13276 0
-16256 -16255 0
16256 -13276 16255 0
16256 0
