p cnf 48 206
9 1 -1 0
9 -1 1 0
-9 1 1 0
-9 -1 -1 0
10 9 0
-10 -9 0
11 1 -9 0
11 -1 9 0
-11 1 9 0
-11 -1 -9 0
12 11 -10 0
12 -11 10 0
-12 11 10 0
-12 -11 -10 0
-13 1 9 10 0
-13 1 9 -10 0
-13 1 -9 10 0
-13 -1 9 10 0
13 1 -9 -10 0
13 -1 9 -10 0
13 -1 -9 10 0
13 -1 -9 -10 0
14 2 -1 0
14 -2 1 0
-14 2 1 0
-14 -2 -1 0
15 14 -13 0
15 -14 13 0
-15 14 13 0
-15 -14 -13 0
-16 2 1 13 0
-16 2 1 -13 0
-16 2 -1 13 0
-16 -2 1 13 0
16 2 -1 -13 0
16 -2 1 -13 0
16 -2 -1 13 0
16 -2 -1 -13 0
17 3 -2 0
17 -3 2 0
-17 3 2 0
-17 -3 -2 0
18 17 -16 0
18 -17 16 0
-18 17 16 0
-18 -17 -16 0
-19 3 2 16 0
-19 3 2 -16 0
-19 3 -2 16 0
-19 -3 2 16 0
19 3 -2 -16 0
19 -3 2 -16 0
19 -3 -2 16 0
19 -3 -2 -16 0
20 4 -3 0
20 -4 3 0
-20 4 3 0
-20 -4 -3 0
21 20 -19 0
21 -20 19 0
-21 20 19 0
-21 -20 -19 0
-22 4 3 19 0
-22 4 3 -19 0
-22 4 -3 19 0
-22 -4 3 19 0
22 4 -3 -19 0
22 -4 3 -19 0
22 -4 -3 19 0
22 -4 -3 -19 0
23 5 -4 0
23 -5 4 0
-23 5 4 0
-23 -5 -4 0
24 23 -22 0
24 -23 22 0
-24 23 22 0
-24 -23 -22 0
-25 5 4 22 0
-25 5 4 -22 0
-25 5 -4 22 0
-25 -5 4 22 0
25 5 -4 -22 0
25 -5 4 -22 0
25 -5 -4 22 0
25 -5 -4 -22 0
26 6 -5 0
26 -6 5 0
-26 6 5 0
-26 -6 -5 0
27 26 -25 0
27 -26 25 0
-27 26 25 0
-27 -26 -25 0
-28 6 5 25 0
-28 6 5 -25 0
-28 6 -5 25 0
-28 -6 5 25 0
28 6 -5 -25 0
28 -6 5 -25 0
28 -6 -5 25 0
28 -6 -5 -25 0
29 7 -6 0
29 -7 6 0
-29 7 6 0
-29 -7 -6 0
30 29 -28 0
30 -29 28 0
-30 29 28 0
-30 -29 -28 0
-31 7 6 28 0
-31 7 6 -28 0
-31 7 -6 28 0
-31 -7 6 28 0
31 7 -6 -28 0
31 -7 6 -28 0
31 -7 -6 28 0
31 -7 -6 -28 0
32 8 -7 0
32 -8 7 0
-32 8 7 0
-32 -8 -7 0
33 32 -31 0
33 -32 31 0
-33 32 31 0
-33 -32 -31 0
-34 8 7 31 0
-34 8 7 -31 0
-34 8 -7 31 0
-34 -8 7 31 0
34 8 -7 -31 0
34 -8 7 -31 0
34 -8 -7 31 0
34 -8 -7 -31 0
35 9 -8 0
35 -9 8 0
-35 9 8 0
-35 -9 -8 0
36 35 -34 0
36 -35 34 0
-36 35 34 0
-36 -35 -34 0
-37 9 8 34 0
-37 9 8 -34 0
-37 9 -8 34 0
-37 -9 8 34 0
37 9 -8 -34 0
37 -9 8 -34 0
37 -9 -8 34 0
37 -9 -8 -34 0
38 9 -9 0
38 -9 9 0
-38 9 9 0
-38 -9 -9 0
39 38 -37 0
39 -38 37 0
-39 38 37 0
-39 -38 -37 0
-40 9 9 37 0
-40 9 9 -37 0
-40 9 -9 37 0
-40 -9 9 37 0
40 9 -9 -37 0
40 -9 9 -37 0
40 -9 -9 37 0
40 -9 -9 -37 0
1 -41 2 0
1 41 -2 0
-1 -41 15 0
-1 41 -15 0
1 -42 3 0
1 42 -3 0
-1 -42 18 0
-1 42 -18 0
1 -43 4 0
1 43 -4 0
-1 -43 21 0
-1 43 -21 0
1 -44 5 0
1 44 -5 0
-1 -44 24 0
-1 44 -24 0
1 -45 6 0
1 45 -6 0
-1 -45 27 0
-1 45 -27 0
1 -46 7 0
1 46 -7 0
-1 -46 30 0
-1 46 -30 0
1 -47 8 0
1 47 -8 0
-1 -47 33 0
-1 47 -33 0
1 -48 9 0
1 48 -9 0
-1 -48 36 0
-1 48 -36 0
2 0
-3 0
4 0
5 0
-6 0
-7 0
-8 0
-41 0
